 C Fe                                   
   1.00000000000000     
     9.9442479305491318   -0.0000007254373097   -0.0121755824964309
     0.0000006246939176    7.3417050890391851    0.0000007139313248
     0.0093145196665987   -0.0000007020885543    7.9928453267923558
   C    Fe
     3    48
Direct
  0.5364742378703350  0.7500000791933371  0.3689337314874809
  0.0386919043539800  0.7500002257362800  0.8691105890647391
  0.0363274073970845  0.7500001042594607  0.3692112331393077
  0.0845184464608727  0.0832754061595306  0.1181518607748195
  0.1691134688491730  0.9316335753182592  0.3691450056150466
  0.3339073593149195  0.4179541073573831  0.1171936278542796
  0.9079985162447848  0.5675420233695362  0.8692882759065038
  0.9079982438602768  0.9324575387103503  0.8692899386539140
  0.3339072063024394  0.0820459673683454  0.1171947481709505
  0.1691137733186241  0.5683665928739059  0.3691436155065208
  0.0845186083682701  0.4167246983924125  0.1181505461460554
  0.0844453624826002  0.0832593036651556  0.6200752513232781
  0.1730394098950288  0.9298360309842292  0.8691217687535472
  0.3338468643384818  0.4180053482937340  0.6211154899932257
  0.9073974795668170  0.5656501316500815  0.3692547622566316
  0.9073973207952616  0.9343497122264073  0.3692558661939678
  0.3338463924410975  0.0819947486045350  0.6211165580716199
  0.1730399018569012  0.5701642189646342  0.8691210371736640
  0.0844458770673990  0.4167407489817948  0.6200740211388104
  0.5839743221237599  0.0825665949242781  0.1173144224416841
  0.6690090203151361  0.9316485562482010  0.3691946073690763
  0.8321057075734882  0.4172617279153331  0.1179721681249851
  0.4195938253385991  0.5807068012617054  0.8690176736892462
  0.4195933461430920  0.9192932427210440  0.8690179433019872
  0.8321053391572801  0.0827382855446940  0.1179735294412153
  0.6690093178577901  0.5683515869907293  0.3691930472924947
  0.5839744220495593  0.4174331029887705  0.1173133546552319
  0.5838736637618641  0.0824353844425602  0.6211952355517357
  0.6659460000451157  0.9188580702287106  0.8692749057509994
  0.8319492194218077  0.4173493685524653  0.6204710541793901
  0.4076614124866940  0.5645711022866963  0.3689445749696492
  0.4076612867776999  0.9354287223389867  0.3689452184854402
  0.8319488014225926  0.0826503474950536  0.6204723304793681
  0.6659465000851398  0.5811416961991354  0.8692748673024147
  0.5838742314315156  0.4175648270965701  0.6211940530487466
 -0.0108688255160529  0.2499999621059237  0.3690881366429544
  0.2726347749462041  0.7500000368249179  0.6194326113676050
  0.2381953768039269  0.2500001161333746  0.8689622551499434
  0.0190884861235559  0.7500000503631901  0.6189755936224018
 -0.0132520060030085  0.2499999230105007  0.8691816856167471
  0.2729431453610747  0.7500000430250109  0.1187172069130748
  0.2408961220502083  0.2500000571136399  0.3689533480398903
  0.0195634671725960  0.7499999691235458  0.1194262625264512
  0.4897138673065468  0.2499999508107675  0.3691902362986399
  0.7684617049794958  0.7499998181450425  0.6191951237182527
  0.7354221676977405  0.2499999623547517  0.8690739467158519
  0.5187515397682326  0.7499998629297271  0.6155246811230198
  0.4854077750202782  0.2500000490867675  0.8692392590939599
  0.7689000108299764  0.7500000786709110  0.1192932310378888
  0.7395168714550207  0.2500000191573774  0.3691755778312423
  0.5190813252287130  0.7500001218002458  0.1227339309940089
 
  0.00000000E+00  0.00000000E+00  0.00000000E+00
  0.00000000E+00  0.00000000E+00  0.00000000E+00
  0.00000000E+00  0.00000000E+00  0.00000000E+00
  0.00000000E+00  0.00000000E+00  0.00000000E+00
  0.00000000E+00  0.00000000E+00  0.00000000E+00
  0.00000000E+00  0.00000000E+00  0.00000000E+00
  0.00000000E+00  0.00000000E+00  0.00000000E+00
  0.00000000E+00  0.00000000E+00  0.00000000E+00
  0.00000000E+00  0.00000000E+00  0.00000000E+00
  0.00000000E+00  0.00000000E+00  0.00000000E+00
  0.00000000E+00  0.00000000E+00  0.00000000E+00
  0.00000000E+00  0.00000000E+00  0.00000000E+00
  0.00000000E+00  0.00000000E+00  0.00000000E+00
  0.00000000E+00  0.00000000E+00  0.00000000E+00
  0.00000000E+00  0.00000000E+00  0.00000000E+00
  0.00000000E+00  0.00000000E+00  0.00000000E+00
  0.00000000E+00  0.00000000E+00  0.00000000E+00
  0.00000000E+00  0.00000000E+00  0.00000000E+00
  0.00000000E+00  0.00000000E+00  0.00000000E+00
  0.00000000E+00  0.00000000E+00  0.00000000E+00
  0.00000000E+00  0.00000000E+00  0.00000000E+00
  0.00000000E+00  0.00000000E+00  0.00000000E+00
  0.00000000E+00  0.00000000E+00  0.00000000E+00
  0.00000000E+00  0.00000000E+00  0.00000000E+00
  0.00000000E+00  0.00000000E+00  0.00000000E+00
  0.00000000E+00  0.00000000E+00  0.00000000E+00
  0.00000000E+00  0.00000000E+00  0.00000000E+00
  0.00000000E+00  0.00000000E+00  0.00000000E+00
  0.00000000E+00  0.00000000E+00  0.00000000E+00
  0.00000000E+00  0.00000000E+00  0.00000000E+00
  0.00000000E+00  0.00000000E+00  0.00000000E+00
  0.00000000E+00  0.00000000E+00  0.00000000E+00
  0.00000000E+00  0.00000000E+00  0.00000000E+00
  0.00000000E+00  0.00000000E+00  0.00000000E+00
  0.00000000E+00  0.00000000E+00  0.00000000E+00
  0.00000000E+00  0.00000000E+00  0.00000000E+00
  0.00000000E+00  0.00000000E+00  0.00000000E+00
  0.00000000E+00  0.00000000E+00  0.00000000E+00
  0.00000000E+00  0.00000000E+00  0.00000000E+00
  0.00000000E+00  0.00000000E+00  0.00000000E+00
  0.00000000E+00  0.00000000E+00  0.00000000E+00
  0.00000000E+00  0.00000000E+00  0.00000000E+00
  0.00000000E+00  0.00000000E+00  0.00000000E+00
  0.00000000E+00  0.00000000E+00  0.00000000E+00
  0.00000000E+00  0.00000000E+00  0.00000000E+00
  0.00000000E+00  0.00000000E+00  0.00000000E+00
  0.00000000E+00  0.00000000E+00  0.00000000E+00
  0.00000000E+00  0.00000000E+00  0.00000000E+00
  0.00000000E+00  0.00000000E+00  0.00000000E+00
  0.00000000E+00  0.00000000E+00  0.00000000E+00
  0.00000000E+00  0.00000000E+00  0.00000000E+00
