53
Lattice="9.963514554130056 -6.1736757107e-05 -0.1011246519813683 -4.50964379817e-05 7.329167949047499 -1.98077428518e-05 -0.0893484764960778 -2.1463377008e-05 8.101937424789526" Properties=species:S:1:pos:R:3:momenta:R:3 pbc="T T T"
C        6.75571096       1.83209586       4.24078997       0.00000000       0.00000000       0.00000000
C        5.33936540       5.49686906       2.97143002       0.00000000       0.00000000       0.00000000
C        9.35963102       1.83226521       1.44498839       0.00000000       0.00000000       0.00000000
C        2.18646695       1.83227746       0.85549103       0.00000000       0.00000000       0.00000000
C        1.81325268       1.83226540       4.54934866       0.00000000       0.00000000       0.00000000
Fe       0.80140368       0.54220691       1.02559612       0.00000000       0.00000000       0.00000000
Fe       1.60096760       6.73396776       3.04219225       0.00000000       0.00000000       0.00000000
Fe       3.46600703       3.19313072       0.88040772       0.00000000       0.00000000       0.00000000
Fe       9.03549292       4.28443943       6.92301646       0.00000000       0.00000000       0.00000000
Fe       9.03540867       6.70915635       6.92303203       0.00000000       0.00000000       0.00000000
Fe       3.46599255       0.47140996       0.88041698       0.00000000       0.00000000       0.00000000
Fe       1.60105619       4.25973000       3.04219884       0.00000000       0.00000000       0.00000000
Fe       0.80142785       3.12238413       1.02556993       0.00000000       0.00000000       0.00000000
Fe       0.70226641       0.45460418       5.19521943       0.00000000       0.00000000       0.00000000
Fe       1.57887350       6.70370120       7.11368918       0.00000000       0.00000000       0.00000000
Fe       3.23710908       3.11274896       5.00396654       0.00000000       0.00000000       0.00000000
Fe       9.10771233       4.23713899       2.90498966       0.00000000       0.00000000       0.00000000
Fe       9.10762793       6.75645896       2.90499941       0.00000000       0.00000000       0.00000000
Fe       3.23709421       0.55177138       5.00397209       0.00000000       0.00000000       0.00000000
Fe       1.57896870       4.28999283       7.11368530       0.00000000       0.00000000       0.00000000
Fe       0.70226987       3.20993984       5.19519909       0.00000000       0.00000000       0.00000000
Fe       5.84960794       0.59451479       0.87016523       0.00000000       0.00000000       0.00000000
Fe       6.64709275       6.85641157       2.93662031       0.00000000       0.00000000       0.00000000
Fe       8.25318119       3.19593173       0.72220153       0.00000000       0.00000000       0.00000000
Fe       4.07780915       4.28342845       7.00089651       0.00000000       0.00000000       0.00000000
Fe       4.07770030       6.71021036       7.00090331       0.00000000       0.00000000       0.00000000
Fe       8.25316258       0.46857884       0.72224412       0.00000000       0.00000000       0.00000000
Fe       6.64718115       4.13740885       2.93656705       0.00000000       0.00000000       0.00000000
Fe       5.84963434       3.07001244       0.87017178       0.00000000       0.00000000       0.00000000
Fe       5.67006467       0.51235242       5.08038128       0.00000000       0.00000000       0.00000000
Fe       6.54628140       6.70777364       6.97357961       0.00000000       0.00000000       0.00000000
Fe       8.20267807       3.08727386       4.91570645       0.00000000       0.00000000       0.00000000
Fe       4.05070392       4.12466535       2.97355849       0.00000000       0.00000000       0.00000000
Fe       4.05062549       6.86900653       2.97355307       0.00000000       0.00000000       0.00000000
Fe       8.20270446       0.57713540       4.91574418       0.00000000       0.00000000       0.00000000
Fe       6.54636027       4.28581578       6.97356372       0.00000000       0.00000000       0.00000000
Fe       5.67013804       3.15209975       5.08026649       0.00000000       0.00000000       0.00000000
Fe       0.15469411       1.83227006       3.30484672       0.00000000       0.00000000       0.00000000
Fe       2.51671711       5.49684507       5.05753125       0.00000000       0.00000000       0.00000000
Fe       2.18291701       1.83226234       7.01451169       0.00000000       0.00000000       0.00000000
Fe       0.00820443       5.49685205       5.01486993       0.00000000       0.00000000       0.00000000
Fe      -0.33953162       1.83227554       7.07169940       0.00000000       0.00000000       0.00000000
Fe       2.57249143       5.49685313       1.03298633       0.00000000       0.00000000       0.00000000
Fe       2.62283470       1.83226646       2.79092069       0.00000000       0.00000000       0.00000000
Fe       0.07550327       5.49687626       0.97831984       0.00000000       0.00000000       0.00000000
Fe       5.12742286       1.83226527       2.97617449       0.00000000       0.00000000       0.00000000
Fe       7.52404232       5.49679838       4.92857605       0.00000000       0.00000000       0.00000000
Fe       7.16409818       1.83222353       6.93553297       0.00000000       0.00000000       0.00000000
Fe       5.01182389       5.49681875       4.94050660       0.00000000       0.00000000       0.00000000
Fe       4.68137846       1.83224842       6.97640889       0.00000000       0.00000000       0.00000000
Fe       7.57479036       5.49683356       0.91996751       0.00000000       0.00000000       0.00000000
Fe       7.70837150       1.83228759       2.62322466       0.00000000       0.00000000       0.00000000
Fe       5.09504825       5.49685640       0.98197149       0.00000000       0.00000000       0.00000000
