 C Fe                                   
   1.00000000000000     
     9.9635145541300556   -0.0000617367571070   -0.1011246519813683
    -0.0000450964379817    7.3291679490474992   -0.0000198077428518
    -0.0893484764960778   -0.0000214633770080    8.1019374247895257
   C    Fe
     5    48
Direct
  0.6828164222731826  0.2499805500055919  0.5319523309597953
  0.5392444369565951  0.7500046942985785  0.3734879232808441
  0.9410963572118163  0.2500048309523919  0.1900979117716396
  0.2204200603889144  0.2500001921799956  0.1083427137878659
  0.1870467478015584  0.2499995992916563  0.5638489177236056
  0.0815784746001515  0.0739803878020107  0.1276049327151488
  0.1640727888144673  0.9187926976165591  0.3775396051666938
  0.3488854267249690  0.4356776527203459  0.1130220117785014
  0.9146257221478084  0.5845840231502334  0.8659063732405553
  0.9146187874755611  0.9154151537167805  0.8659090170416479
  0.3488822934778181  0.0643229796862844  0.1130222076542346
  0.1640801531653674  0.5812048871005737  0.3775396847417498
  0.0815824731500121  0.4260226980710995  0.1276026102424377
  0.0762429083079619  0.0620292332462620  0.6421835207196448
  0.1663620310120505  0.9146645856757395  0.8801019092264354
  0.3304738292975556  0.4247116076999549  0.6217517790715976
  0.9174270725900727  0.5781288685102777  0.3700072527721439
  0.9174201745868306  0.9218677464486635  0.3700092097223395
  0.3304707532514709  0.0752889179693994  0.6217515710818832
  0.1663700843562159  0.5853354729850702  0.8801007258281521
  0.0762449435517250  0.4379703610973794  0.6421819543515933
  0.5881321981434441  0.0811215629578975  0.1147431102154943
  0.6704730528305023  0.9355033158499656  0.3708298445980371
  0.8292345178485850  0.4360638317235085  0.0994905507456292
  0.4170723982009367  0.5844419019792201  0.8693086625358145
  0.4170629857117038  0.9155547823054184  0.8693101937089365
  0.8292310037675430  0.0639407053898812  0.0994948543926736
  0.6704801792811174  0.5645194962503904  0.3708224529206195
  0.5881363923268101  0.4188812749812246  0.1147447975436487
  0.5747706224193172  0.0699126445410082  0.6342317737502042
  0.6648225542636186  0.9152244003270638  0.8690301238689566
  0.8288071445360626  0.4212399412797286  0.6170780347994659
  0.4098934200485261  0.5627785674986049  0.3721356773484255
  0.4098872445783843  0.9372195960690579  0.3721358459524425
  0.8288082777376746  0.0787537980544279  0.6170818688860897
  0.6648289497851381  0.5847697176721497  0.8690274350004428
  0.5747794989558701  0.4300827698647460  0.6342185966131152
  0.0191872869308277  0.2499983651172426  0.4081482994727917
  0.2582235120334698  0.7499997984142226  0.6274621248191816
  0.2268815538382966  0.2500004099040032  0.8686144548426137
  0.0063782417627060  0.7499986040376330  0.6190531379409403
 -0.0262520412410086  0.2500000894386731  0.8725134805229945
  0.2593669597482914  0.7499994527995586  0.1307378128533525
  0.2663639868746046  0.2499997788082034  0.3478009595493630
  0.0086652021758593  0.7500004670258580  0.1208613333210704
  0.5179731686439386  0.2500018118474525  0.3738067991892814
  0.7607031762718645  0.7499976311824704  0.6178172558686036
  0.7267922700323444  0.2499993156693267  0.8651059821718565
  0.5085463642509751  0.7499982819380350  0.6161425067401739
  0.4776285040782590  0.2500006174899788  0.8670412386340545
  0.7613597402336785  0.7500009883734853  0.1230538510728457
  0.7766514447656060  0.2500069189109126  0.3334718693716085
  0.5125182480229289  0.7500020220737998  0.1276009078707200
 
  0.00000000E+00  0.00000000E+00  0.00000000E+00
  0.00000000E+00  0.00000000E+00  0.00000000E+00
  0.00000000E+00  0.00000000E+00  0.00000000E+00
  0.00000000E+00  0.00000000E+00  0.00000000E+00
  0.00000000E+00  0.00000000E+00  0.00000000E+00
  0.00000000E+00  0.00000000E+00  0.00000000E+00
  0.00000000E+00  0.00000000E+00  0.00000000E+00
  0.00000000E+00  0.00000000E+00  0.00000000E+00
  0.00000000E+00  0.00000000E+00  0.00000000E+00
  0.00000000E+00  0.00000000E+00  0.00000000E+00
  0.00000000E+00  0.00000000E+00  0.00000000E+00
  0.00000000E+00  0.00000000E+00  0.00000000E+00
  0.00000000E+00  0.00000000E+00  0.00000000E+00
  0.00000000E+00  0.00000000E+00  0.00000000E+00
  0.00000000E+00  0.00000000E+00  0.00000000E+00
  0.00000000E+00  0.00000000E+00  0.00000000E+00
  0.00000000E+00  0.00000000E+00  0.00000000E+00
  0.00000000E+00  0.00000000E+00  0.00000000E+00
  0.00000000E+00  0.00000000E+00  0.00000000E+00
  0.00000000E+00  0.00000000E+00  0.00000000E+00
  0.00000000E+00  0.00000000E+00  0.00000000E+00
  0.00000000E+00  0.00000000E+00  0.00000000E+00
  0.00000000E+00  0.00000000E+00  0.00000000E+00
  0.00000000E+00  0.00000000E+00  0.00000000E+00
  0.00000000E+00  0.00000000E+00  0.00000000E+00
  0.00000000E+00  0.00000000E+00  0.00000000E+00
  0.00000000E+00  0.00000000E+00  0.00000000E+00
  0.00000000E+00  0.00000000E+00  0.00000000E+00
  0.00000000E+00  0.00000000E+00  0.00000000E+00
  0.00000000E+00  0.00000000E+00  0.00000000E+00
  0.00000000E+00  0.00000000E+00  0.00000000E+00
  0.00000000E+00  0.00000000E+00  0.00000000E+00
  0.00000000E+00  0.00000000E+00  0.00000000E+00
  0.00000000E+00  0.00000000E+00  0.00000000E+00
  0.00000000E+00  0.00000000E+00  0.00000000E+00
  0.00000000E+00  0.00000000E+00  0.00000000E+00
  0.00000000E+00  0.00000000E+00  0.00000000E+00
  0.00000000E+00  0.00000000E+00  0.00000000E+00
  0.00000000E+00  0.00000000E+00  0.00000000E+00
  0.00000000E+00  0.00000000E+00  0.00000000E+00
  0.00000000E+00  0.00000000E+00  0.00000000E+00
  0.00000000E+00  0.00000000E+00  0.00000000E+00
  0.00000000E+00  0.00000000E+00  0.00000000E+00
  0.00000000E+00  0.00000000E+00  0.00000000E+00
  0.00000000E+00  0.00000000E+00  0.00000000E+00
  0.00000000E+00  0.00000000E+00  0.00000000E+00
  0.00000000E+00  0.00000000E+00  0.00000000E+00
  0.00000000E+00  0.00000000E+00  0.00000000E+00
  0.00000000E+00  0.00000000E+00  0.00000000E+00
  0.00000000E+00  0.00000000E+00  0.00000000E+00
  0.00000000E+00  0.00000000E+00  0.00000000E+00
  0.00000000E+00  0.00000000E+00  0.00000000E+00
  0.00000000E+00  0.00000000E+00  0.00000000E+00
