53
Time=0.00000000 pbc="T T T" Lattice="9.98429176 0.00143114 -0.06337570 0.00198763 7.40684176 0.00021011 -0.04160362 0.00020368 8.00414881" energy=-446.92649325 virial="5.31312281 -0.02265169 2.60169480 -0.02265169 2.37017126 -0.01960433 2.60169480 -0.01960433 -3.50490737" stress="0.01129533 -0.00015178 0.00437695 -0.00015178 0.00636054 0.00007063 0.00437695 0.00007063 -0.00365214" Properties=species:S:1:pos:R:3
C 7.05678278 1.81407497 4.94488750
C 5.29643859 5.51717903 2.95571524
C 9.47673229 1.81461653 0.91615437
C 2.17523231 1.81373460 0.95580872
C 2.04734110 1.81377177 4.96370573
Fe 0.82632431 0.46638655 0.97167965
Fe 1.58528537 6.75098054 2.98468183
Fe 3.40510930 3.18537032 0.93875388
Fe 9.09035582 4.28433755 6.94326868
Fe 9.09278672 6.75194096 6.94338406
Fe 3.40506871 0.44214166 0.93840317
Fe 1.58333661 4.28333049 2.98450306
Fe 0.82608929 3.16047789 0.97182742
Fe 0.71984980 0.49433893 4.98594801
Fe 1.61207676 6.74667447 6.97272870
Fe 3.32696541 3.16819429 4.98192289
Fe 9.10628663 4.28108024 2.91950794
Fe 9.10830503 6.75491397 2.91954363
Fe 3.32688962 0.45944659 4.98201435
Fe 1.60973480 4.28785075 6.97277888
Fe 0.72003103 3.13315059 4.98601842
Fe 5.79105185 0.56777534 0.93452425
Fe 6.65075795 6.82146866 2.94014646
Fe 8.19369010 3.14890794 0.92337720
Fe 4.12384016 4.29504680 6.96111514
Fe 4.12621924 6.73936065 6.96117024
Fe 8.19381625 0.47990151 0.92333973
Fe 6.64924156 4.21203536 2.94008263
Fe 5.79108989 3.05949403 0.93451440
Fe 5.72088930 0.49356135 4.96414548
Fe 6.59232722 6.74962401 6.94862668
Fe 8.33265345 3.17992352 4.94198555
Fe 4.01276524 4.16554256 2.96159869
Fe 4.01426492 6.86967753 2.96164383
Fe 8.33237017 0.44820295 4.94190338
Fe 6.58993984 4.28546123 6.94859485
Fe 5.72084791 3.13422571 4.96437879
Fe 9.69629167 1.81457731 2.89997146
Fe 2.57102304 5.51736271 4.97600428
Fe 2.22235352 1.81392820 6.96553996
Fe 0.07379103 5.51702723 4.99755355
Fe 9.65601021 1.81474713 6.93922526
Fe 2.59271814 5.51727853 0.97148609
Fe 2.28383720 1.81375481 2.96422206
Fe 0.10361194 5.51698469 0.98270559
Fe 4.77210815 1.81393627 2.95375069
Fe 7.58800064 5.51769840 4.94608574
Fe 7.18144347 1.81407668 6.91289693
Fe 5.07204125 5.51741769 4.92680438
Fe 4.71442342 1.81385142 6.95185155
Fe 7.60728938 5.51787099 0.93286285
Fe 7.23961459 1.81357222 2.97786999
Fe 5.10890661 5.51715526 0.98065912
