61
Lattice="10.041133902268248 -1.31865131249e-05 -0.0071729522721095 -8.799600815e-06 6.7566962261885175 -1.0500303525e-06 -0.0063303430815184 -1.3635507524e-06 8.852870478085288" Properties=species:S:1:pos:R:3:momenta:R:3 pbc="T T T"
C        8.12325684       5.06750768       4.12108028       0.00000000       0.00000000       0.00000000
C        5.60065204       5.06751762       6.97527581       0.00000000       0.00000000       0.00000000
C        4.39607476       1.68916952       6.38884445       0.00000000       0.00000000       0.00000000
C        8.12852130       5.06750984       8.55454727       0.00000000       0.00000000       0.00000000
C        6.86851576       1.68916449       4.65936273       0.00000000       0.00000000       0.00000000
C        5.60933558       5.06744725       2.45980555       0.00000000       0.00000000       0.00000000
C        9.42070592       1.68916352       1.93443759       0.00000000       0.00000000       0.00000000
C        3.12516755       5.06751733       4.14266833       0.00000000       0.00000000       0.00000000
C        1.92479890       1.68917339       0.34197712       0.00000000       0.00000000       0.00000000
C        0.61976856       5.06751679       6.91937642       0.00000000       0.00000000       0.00000000
C        9.39548996       1.68916596       6.38989772       0.00000000       0.00000000       0.00000000
C        1.89296857       1.68917469       4.68099799       0.00000000       0.00000000       0.00000000
C        0.62203435       5.06752504       2.47554997       0.00000000       0.00000000       0.00000000
Fe       0.88651213       0.45485593       1.48091464       0.00000000       0.00000000       0.00000000
Fe       1.62049063       6.30128596       3.68009809       0.00000000       0.00000000       0.00000000
Fe       3.42819009       2.91403741       0.80855071       0.00000000       0.00000000       0.00000000
Fe       9.14512941       3.83314906       7.36239734       0.00000000       0.00000000       0.00000000
Fe       9.14512774       6.30186942       7.36240150       0.00000000       0.00000000       0.00000000
Fe       3.42819135       0.46430317       0.80854349       0.00000000       0.00000000       0.00000000
Fe       1.62049557       3.83375418       3.68009346       0.00000000       0.00000000       0.00000000
Fe       0.88651101       2.92349021       1.48091720       0.00000000       0.00000000       0.00000000
Fe       0.88552601       0.46298652       5.90600283       0.00000000       0.00000000       0.00000000
Fe       1.61925120       6.28446445       8.13291795       0.00000000       0.00000000       0.00000000
Fe       3.39120728       2.91109580       5.17218035       0.00000000       0.00000000       0.00000000
Fe       9.14283504       3.83987103       2.94627270       0.00000000       0.00000000       0.00000000
Fe       9.14283070       6.29515147       2.94627562       0.00000000       0.00000000       0.00000000
Fe       3.39121031       0.46724690       5.17217981       0.00000000       0.00000000       0.00000000
Fe       1.61925548       3.85057283       8.13292344       0.00000000       0.00000000       0.00000000
Fe       0.88552506       2.91536396       5.90600557       0.00000000       0.00000000       0.00000000
Fe       5.93361554       0.48755197       1.38814739       0.00000000       0.00000000       0.00000000
Fe       6.62285179       6.30427532       3.65999796       0.00000000       0.00000000       0.00000000
Fe       8.43237670       2.91850031       0.72153373       0.00000000       0.00000000       0.00000000
Fe       4.10313380       3.81998421       7.42077684       0.00000000       0.00000000       0.00000000
Fe       4.10312802       6.31504701       7.42077413       0.00000000       0.00000000       0.00000000
Fe       8.43237656       0.45983531       0.72153141       0.00000000       0.00000000       0.00000000
Fe       6.62285671       3.83074656       3.65999227       0.00000000       0.00000000       0.00000000
Fe       5.93361017       2.89077262       1.38812977       0.00000000       0.00000000       0.00000000
Fe       5.89149225       0.47089205       5.88561978       0.00000000       0.00000000       0.00000000
Fe       6.66034478       6.29398908       8.07553550       0.00000000       0.00000000       0.00000000
Fe       8.39875357       2.90920187       5.16219525       0.00000000       0.00000000       0.00000000
Fe       4.13823732       3.85184642       2.95471340       0.00000000       0.00000000       0.00000000
Fe       4.13823609       6.28318430       2.95471109       0.00000000       0.00000000       0.00000000
Fe       8.39875977       0.46912983       5.16219863       0.00000000       0.00000000       0.00000000
Fe       6.66034934       3.84103725       8.07552949       0.00000000       0.00000000       0.00000000
Fe       5.89148942       2.90744222       5.88561673       0.00000000       0.00000000       0.00000000
Fe       0.17809336       1.68917514       3.72122459       0.00000000       0.00000000       0.00000000
Fe       2.33369457       5.06751989       5.94318912       0.00000000       0.00000000       0.00000000
Fe       2.70540564       1.68917094       7.39654726       0.00000000       0.00000000       0.00000000
Fe       9.84310564       5.06751104       5.13098292       0.00000000       0.00000000       0.00000000
Fe       0.21009039       1.68917306       8.14640003       0.00000000       0.00000000       0.00000000
Fe       2.31986575       5.06752100       1.41763840       0.00000000       0.00000000       0.00000000
Fe       2.73747851       1.68917062       2.89899859       0.00000000       0.00000000       0.00000000
Fe       9.83633473       5.06751133       0.71215570       0.00000000       0.00000000       0.00000000
Fe       5.18108924       1.68916929       3.58531103       0.00000000       0.00000000       0.00000000
Fe       7.31624433       5.06751363       5.90966258       0.00000000       0.00000000       0.00000000
Fe       7.70082760       1.68916467       7.44354469       0.00000000       0.00000000       0.00000000
Fe       4.82097289       5.06751638       5.16614307       0.00000000       0.00000000       0.00000000
Fe       5.25600990       1.68916428       8.16677459       0.00000000       0.00000000       0.00000000
Fe       7.32055019       5.06751415       1.48173387       0.00000000       0.00000000       0.00000000
Fe       7.70596892       1.68916402       2.89392100       0.00000000       0.00000000       0.00000000
Fe       4.77796518       5.06751691       0.66020951       0.00000000       0.00000000       0.00000000
