 C Fe                                   
   1.00000000000000     
    10.0411339022682480   -0.0000131865131249   -0.0071729522721095
    -0.0000087996008150    6.7566962261885175   -0.0000010500303525
    -0.0063303430815184   -0.0000013635507524    8.8528704780852880
   C    Fe
    13    48
Direct
  0.8092925053218579  0.7499995295496297  0.4661636131600674
  0.5582685484664144  0.7500005754181210  0.7883636215497658
  0.4382620193212912  0.2500003297467796  0.7220243826493666
  0.8101325167285887  0.7499999512302719  0.9669585840750033
  0.6843702382588853  0.2500000265376990  0.5268654908242786
  0.5588117844272470  0.7499900588445282  0.2783068689780804
  0.9383498180109819  0.2500003157869169  0.2192699643107453
  0.3115323469998511  0.7499999865919670  0.4681988442733387
  0.1917160591734014  0.2500002829620062  0.0387843186488750
  0.0622164048431206  0.7499994825999979  0.7816474333890940
  0.9361558387620302  0.2500007743851433  0.7225467712793563
  0.1888550593103770  0.2500005696494621  0.5289078735436311
  0.0621255974001371  0.7500006022001469  0.2796828882161728
  0.0883936149691254  0.0673194869653077  0.1673523586869908
  0.1616481939112778  0.9325990761341363  0.4158265466827675
  0.3414727689087736  0.4312820856156526  0.0916087644004135
  0.9112918649227966  0.5673130901446405  0.8323779965191171
  0.9112920192270088  0.9326869756637992  0.8323785097516366
  0.3414725761389004  0.0687181703018717  0.0916079065481645
  0.1616483657003061  0.5674011010550095  0.4158259814200490
  0.0883938232002618  0.4326806339973669  0.1673526906010292
  0.0886105323486266  0.0685229271000474  0.6672003743492542
  0.1618418558272077  0.9301095720794184  0.9188070504294161
  0.3381003837691856  0.4308468157913589  0.5845116561864460
  0.9107488824095807  0.5683078483337815  0.3335422181680276
  0.9107487686837243  0.9316926086279479  0.3335425910001912
  0.3381003688424678  0.0691539390681866  0.5845115515058489
  0.1618419666624123  0.5698903850381147  0.9188076277004500
  0.0886107562331064  0.4314780393022921  0.6672007277288008
  0.5910300441327819  0.0721595229832175  0.1572808385096451
  0.6598338961496835  0.9330424779684087  0.4139597329524760
  0.8398355034191776  0.4319435706053644  0.0821833199662717
  0.4091616767241244  0.5653636963454973  0.8385655645783262
  0.4091614245838550  0.9346362977411676  0.8385653023268217
  0.8398351704620867  0.0680578909284916  0.0821830136364705
  0.6598340654666464  0.5669569416022187  0.4139590471555928
  0.5910298200753981  0.4278393660049459  0.1572788906833198
  0.5871552468009760  0.0696939286420631  0.6653018934143849
  0.6638822816415245  0.9315202085709118  0.9127320332678251
  0.8368031953915455  0.4305674847072153  0.5837878301953247
  0.4123396117982407  0.5700792498264883  0.3340918288492699
  0.4123398040187751  0.9299204789920130  0.3340916115671871
  0.8368034971231491  0.0694335881059663  0.5837881701556655
  0.6638824173003677  0.5684800848603323  0.9127313122129077
  0.5871552810554224  0.4303065831299535  0.6653015912057085
  0.0180016079559337  0.2500002807216463  0.4203556329225475
  0.2328374598524749  0.7500002521767913  0.6715177928605444
  0.2699593727825152  0.2500002349068131  0.8357158223223283
  0.9806448487426052  0.7500003841242030  0.5803787417507711
  0.0215033360483408  0.2500000796376825  0.9202161666978366
  0.2311379631528549  0.7500003100209406  0.1603205571663166
  0.2728332376303536  0.2500000893790446  0.3276853404739656
  0.9796558523319320  0.7500003239213253  0.0812373243776410
  0.5162422746239939  0.2500003843919148  0.4054068428145573
  0.7290491805985961  0.7500002944707355  0.6681327616584867
  0.7674587746697416  0.2500002782782089  0.8414276386759094
  0.4804911584394451  0.7500001988053071  0.5839451069812343
  0.5240299135091073  0.2499997620502014  0.9229247970603041
  0.7291626754399786  0.7500002699103868  0.1679641541560704
  0.7676468073994792  0.2500000793893939  0.3275127051033364
  0.4758871218999340  0.7500001660795488  0.0749614277245405
 
  0.00000000E+00  0.00000000E+00  0.00000000E+00
  0.00000000E+00  0.00000000E+00  0.00000000E+00
  0.00000000E+00  0.00000000E+00  0.00000000E+00
  0.00000000E+00  0.00000000E+00  0.00000000E+00
  0.00000000E+00  0.00000000E+00  0.00000000E+00
  0.00000000E+00  0.00000000E+00  0.00000000E+00
  0.00000000E+00  0.00000000E+00  0.00000000E+00
  0.00000000E+00  0.00000000E+00  0.00000000E+00
  0.00000000E+00  0.00000000E+00  0.00000000E+00
  0.00000000E+00  0.00000000E+00  0.00000000E+00
  0.00000000E+00  0.00000000E+00  0.00000000E+00
  0.00000000E+00  0.00000000E+00  0.00000000E+00
  0.00000000E+00  0.00000000E+00  0.00000000E+00
  0.00000000E+00  0.00000000E+00  0.00000000E+00
  0.00000000E+00  0.00000000E+00  0.00000000E+00
  0.00000000E+00  0.00000000E+00  0.00000000E+00
  0.00000000E+00  0.00000000E+00  0.00000000E+00
  0.00000000E+00  0.00000000E+00  0.00000000E+00
  0.00000000E+00  0.00000000E+00  0.00000000E+00
  0.00000000E+00  0.00000000E+00  0.00000000E+00
  0.00000000E+00  0.00000000E+00  0.00000000E+00
  0.00000000E+00  0.00000000E+00  0.00000000E+00
  0.00000000E+00  0.00000000E+00  0.00000000E+00
  0.00000000E+00  0.00000000E+00  0.00000000E+00
  0.00000000E+00  0.00000000E+00  0.00000000E+00
  0.00000000E+00  0.00000000E+00  0.00000000E+00
  0.00000000E+00  0.00000000E+00  0.00000000E+00
  0.00000000E+00  0.00000000E+00  0.00000000E+00
  0.00000000E+00  0.00000000E+00  0.00000000E+00
  0.00000000E+00  0.00000000E+00  0.00000000E+00
  0.00000000E+00  0.00000000E+00  0.00000000E+00
  0.00000000E+00  0.00000000E+00  0.00000000E+00
  0.00000000E+00  0.00000000E+00  0.00000000E+00
  0.00000000E+00  0.00000000E+00  0.00000000E+00
  0.00000000E+00  0.00000000E+00  0.00000000E+00
  0.00000000E+00  0.00000000E+00  0.00000000E+00
  0.00000000E+00  0.00000000E+00  0.00000000E+00
  0.00000000E+00  0.00000000E+00  0.00000000E+00
  0.00000000E+00  0.00000000E+00  0.00000000E+00
  0.00000000E+00  0.00000000E+00  0.00000000E+00
  0.00000000E+00  0.00000000E+00  0.00000000E+00
  0.00000000E+00  0.00000000E+00  0.00000000E+00
  0.00000000E+00  0.00000000E+00  0.00000000E+00
  0.00000000E+00  0.00000000E+00  0.00000000E+00
  0.00000000E+00  0.00000000E+00  0.00000000E+00
  0.00000000E+00  0.00000000E+00  0.00000000E+00
  0.00000000E+00  0.00000000E+00  0.00000000E+00
  0.00000000E+00  0.00000000E+00  0.00000000E+00
  0.00000000E+00  0.00000000E+00  0.00000000E+00
  0.00000000E+00  0.00000000E+00  0.00000000E+00
  0.00000000E+00  0.00000000E+00  0.00000000E+00
  0.00000000E+00  0.00000000E+00  0.00000000E+00
  0.00000000E+00  0.00000000E+00  0.00000000E+00
  0.00000000E+00  0.00000000E+00  0.00000000E+00
  0.00000000E+00  0.00000000E+00  0.00000000E+00
  0.00000000E+00  0.00000000E+00  0.00000000E+00
  0.00000000E+00  0.00000000E+00  0.00000000E+00
  0.00000000E+00  0.00000000E+00  0.00000000E+00
  0.00000000E+00  0.00000000E+00  0.00000000E+00
  0.00000000E+00  0.00000000E+00  0.00000000E+00
  0.00000000E+00  0.00000000E+00  0.00000000E+00
