61
Time=0.00000000 pbc="T T T" Lattice="10.00229546 -0.00001009 0.00037218 -0.00000393 6.69184247 0.00003185 0.00221836 0.00002379 8.82120815" energy=-520.70435536 virial="0.02534252 0.00034404 0.00037208 0.00034404 -0.07013237 -0.00011383 0.00037208 -0.00011383 0.03078162" stress="0.00258640 -0.00065353 -0.00035017 -0.00065353 0.00283771 0.00030976 -0.00035017 0.00030976 0.00256474" Properties=species:S:1:pos:R:3
C 8.11029245 5.05155580 4.12919643
C 5.59294219 5.05161242 6.93766561
C 4.40505929 1.70561867 6.37769204
C 8.11803035 5.05157479 8.53212293
C 6.88036191 1.70563791 4.67804392
C 5.61491385 5.05156722 2.48719275
C 9.40062919 1.70562582 1.92702862
C 3.12488472 5.05156323 4.14760321
C 1.93502447 1.70564462 0.34979219
C 0.64039467 5.05161690 6.92276195
C 9.39502429 1.70561513 6.36625109
C 1.91296528 1.70564360 4.68549933
C 0.63213964 5.05157541 2.48849356
Fe 0.89933910 0.47912655 1.49243496
Fe 1.63593450 6.27490032 3.68242567
Fe 3.44645606 2.92308613 0.77809472
Fe 9.13769600 3.82467174 7.35660654
Fe 9.13767719 6.27850261 7.35661414
Fe 3.44646353 0.48821150 0.77809388
Fe 1.63593329 3.82823161 3.68241435
Fe 0.89933132 2.93215575 1.49244017
Fe 0.90477545 0.48741603 5.89706734
Fe 1.65099357 6.27830741 8.11954382
Fe 3.41008691 2.92304041 5.15235233
Fe 9.12726450 3.83021540 2.94983119
Fe 9.12725764 6.27290684 2.94983635
Fe 3.41008088 0.48823866 5.15232941
Fe 1.65097620 3.82487380 8.11951820
Fe 0.90475998 2.92385398 5.89706697
Fe 5.92088233 0.51346303 1.43814660
Fe 6.61750031 6.28123616 3.67849275
Fe 8.38725303 2.93245116 0.73919817
Fe 4.09264287 3.82223338 7.38052157
Fe 4.09262300 6.28095579 7.38052513
Fe 8.38725246 0.47881952 0.73918972
Fe 6.61749818 3.82188155 3.67848374
Fe 5.92086116 2.89780738 1.43815192
Fe 5.89275475 0.48904444 5.89333401
Fe 6.63102879 6.27018721 8.08706602
Fe 8.38551370 2.91971155 5.16439472
Fe 4.13154095 3.83503633 2.94220811
Fe 4.13153949 6.26809559 2.94221642
Fe 8.38550948 0.49155794 5.16437237
Fe 6.63101688 3.83297882 8.08704164
Fe 5.89274252 2.92221022 5.89333713
Fe 0.19243310 1.70564075 3.72122969
Fe 2.33883044 5.05155865 5.94854005
Fe 2.70148125 1.70567390 7.35731737
Fe 9.82681081 5.05155975 5.12834225
Fe 0.22353625 1.70566362 8.14892124
Fe 2.32803482 5.05156192 1.43828458
Fe 2.74845376 1.70564925 2.89369096
Fe 9.82316159 5.05156086 0.70604721
Fe 5.19014226 1.70563512 3.62527866
Fe 7.31194747 5.05155412 5.92093955
Fe 7.70121581 1.70566328 7.41780925
Fe 4.83191771 5.05156104 5.13384028
Fe 5.26168512 1.70565674 8.17068584
Fe 7.31799264 5.05154977 1.50822298
Fe 7.68829754 1.70564350 2.89236842
Fe 4.77909885 5.05157150 0.68972425
