54
Lattice="10.131054955400748 5.31339659055e-05 -0.0044271346919411 4.07928262998e-05 7.4772578555935665 -3.275992968e-06 0.0049996321633765 -6.0464348477e-06 7.921809522072216" Properties=species:S:1:pos:R:3:momenta:R:3 pbc="T T T"
C        5.48122959       5.60795562       6.84237351       0.00000000       0.00000000       0.00000000
C        5.47872655       5.60795875       2.88146754       0.00000000       0.00000000       0.00000000
C        2.16833710       1.86930016       0.90340308       0.00000000       0.00000000       0.00000000
C        0.34390553       5.60793774       6.84112124       0.00000000       0.00000000       0.00000000
C        2.17083819       1.86932045       4.86430877       0.00000000       0.00000000       0.00000000
C        0.34142359       5.60793933       2.88021444       0.00000000       0.00000000       0.00000000
Fe       0.79284299       0.56619286       0.90122060       0.00000000       0.00000000       0.00000000
Fe       1.71446573       6.91802764       2.88170928       0.00000000       0.00000000       0.00000000
Fe       3.46675332       3.21003679       0.90236195       0.00000000       0.00000000       0.00000000
Fe       9.20564540       4.23678202       6.83849166       0.00000000       0.00000000       0.00000000
Fe       9.20561600       6.97914140       6.83850217       0.00000000       0.00000000       0.00000000
Fe       3.46681660       0.52867811       0.90236024       0.00000000       0.00000000       0.00000000
Fe       1.71448809       4.29789364       2.88171290       0.00000000       0.00000000       0.00000000
Fe       0.79280913       3.17241122       0.90122348       0.00000000       0.00000000       0.00000000
Fe       0.79535155       0.56619654       4.86212542       0.00000000       0.00000000       0.00000000
Fe       1.71695465       6.91801768       6.84261702       0.00000000       0.00000000       0.00000000
Fe       3.46925626       3.21004572       4.86326694       0.00000000       0.00000000       0.00000000
Fe       9.20315686       4.23679099       2.87758725       0.00000000       0.00000000       0.00000000
Fe       9.20312707       6.97913657       2.87759533       0.00000000       0.00000000       0.00000000
Fe       3.46931499       0.52869082       4.86326398       0.00000000       0.00000000       0.00000000
Fe       1.71697632       4.29789814       6.84262041       0.00000000       0.00000000       0.00000000
Fe       0.79530516       3.17241474       4.86212769       0.00000000       0.00000000       0.00000000
Fe       5.93512340       0.62796621       0.90169125       0.00000000       0.00000000       0.00000000
Fe       6.79726509       6.95079466       2.88117309       0.00000000       0.00000000       0.00000000
Fe       8.40926973       3.12401086       0.89830029       0.00000000       0.00000000       0.00000000
Fe       4.17662276       4.26227332       6.84331822       0.00000000       0.00000000       0.00000000
Fe       4.17658159       6.95363177       6.84330915       0.00000000       0.00000000       0.00000000
Fe       8.40929442       0.61472048       0.89831272       0.00000000       0.00000000       0.00000000
Fe       6.79727161       4.26518022       2.88117026       0.00000000       0.00000000       0.00000000
Fe       5.93511473       3.11069484       0.90168721       0.00000000       0.00000000       0.00000000
Fe       5.93763364       0.62796598       4.86259275       0.00000000       0.00000000       0.00000000
Fe       6.79975731       6.95079710       6.84207734       0.00000000       0.00000000       0.00000000
Fe       8.41176897       3.12401135       4.85920791       0.00000000       0.00000000       0.00000000
Fe       4.17412589       4.26227379       2.88240779       0.00000000       0.00000000       0.00000000
Fe       4.17408317       6.95363388       2.88240842       0.00000000       0.00000000       0.00000000
Fe       8.41180058       0.61471671       4.85921848       0.00000000       0.00000000       0.00000000
Fe       6.79976380       4.26517325       6.84207805       0.00000000       0.00000000       0.00000000
Fe       5.93762011       3.11069042       4.86258956       0.00000000       0.00000000       0.00000000
Fe      -0.21123202       1.86929494       2.88256631       0.00000000       0.00000000       0.00000000
Fe       2.76237767       5.60802160       4.86191195       0.00000000       0.00000000       0.00000000
Fe       2.37486936       1.86932803       6.84436270       0.00000000       0.00000000       0.00000000
Fe       0.19264495       5.60792784       4.86098977       0.00000000       0.00000000       0.00000000
Fe      -0.20873880       1.86929206       6.84347271       0.00000000       0.00000000       0.00000000
Fe       2.75987460       5.60801899       0.90100849       0.00000000       0.00000000       0.00000000
Fe       2.37237474       1.86933070       2.88345789       0.00000000       0.00000000       0.00000000
Fe       0.19014976       5.60792152       0.90007781       0.00000000       0.00000000       0.00000000
Fe       4.93696057       1.86929829       2.88327429       0.00000000       0.00000000       0.00000000
Fe       7.83206741       5.60797916       4.85992424       0.00000000       0.00000000       0.00000000
Fe       7.46079835       1.86935380       6.84080208       0.00000000       0.00000000       0.00000000
Fe       5.28115586       5.60798857       4.86176623       0.00000000       0.00000000       0.00000000
Fe       4.93946133       1.86929615       6.84418066       0.00000000       0.00000000       0.00000000
Fe       7.82956348       5.60797986       0.89901919       0.00000000       0.00000000       0.00000000
Fe       7.45829433       1.86935527       2.87990002       0.00000000       0.00000000       0.00000000
Fe       5.27865679       5.60799538       0.90086578       0.00000000       0.00000000       0.00000000
