 C Fe                                   
   1.00000000000000     
    10.1310549554007476    0.0000531339659055   -0.0044271346919411
     0.0000407928262998    7.4772578555935665   -0.0000032759929680
     0.0049996321633765   -0.0000060464348477    7.9218095220722162
   C    Fe
     6    48
Direct
  0.5406030401695309  0.7499984919987986  0.8640411346281430
  0.5406027218665330  0.7499985069452022  0.3640409814976615
  0.2139714132415278  0.2499966587960437  0.1141596727940886
  0.0335164759002615  0.7499997045953523  0.8635996681842029
  0.2139715389104652  0.2499997765373539  0.6141597896614387
  0.0335182404230925  0.7499995125007727  0.3635994125361886
  0.0782022109704776  0.0757215285597336  0.1138082225516865
  0.1690454553350563  0.9252082775719438  0.3638639238796333
  0.3421327166265597  0.4293043473612932  0.1140999437329519
  0.9082276094793059  0.5666166745344300  0.8637564863488910
  0.9082232300586175  0.9333767131665083  0.8637579626241940
  0.3421404063418896  0.0707024728763153  0.1140995837347142
  0.1690490733774111  0.5747945223442985  0.3638642378567836
  0.0781974651697872  0.4242742210920280  0.1138087268075225
  0.0782030744823091  0.0757224247520198  0.6138082306870137
  0.1690443803131504  0.9252073491856440  0.8638642998624658
  0.3421330248379693  0.4293059452583874  0.6140999728370520
  0.9082287225359701  0.5666174705219416  0.3637565323432416
  0.9082243048739459  0.9333756640514703  0.3637577004123549
  0.3421402657861151  0.0707045776446284  0.6140994553822006
  0.1690479302154972  0.5747955283970766  0.8638645842835203
  0.0781970914409962  0.4242750958672536  0.6138086580030734
  0.5857780147291074  0.0839794199264467  0.1141512987124669
  0.6707501782271570  0.9295869368124151  0.3640766198944305
  0.8299909012989514  0.4177958700949742  0.1138598616388974
  0.4118306927929259  0.5700293801792077  0.8640883499490373
  0.4118251805402633  0.9299686126987011  0.8640873503484415
  0.8299946887054080  0.0822062146185334  0.1138612944762139
  0.6707522685763392  0.5704159018902419  0.3640761157909834
  0.5857758226893077  0.4160167352472394  0.1141509245390484
  0.5857790435734298  0.0839797930238013  0.6141508873007421
  0.6707494284433256  0.9295876672361483  0.8640765558503768
  0.8299908433767105  0.4177963395234246  0.6138602228086992
  0.4118309843472457  0.5700290391090020  0.3640876339569118
  0.4118253176616723  0.9299684902789922  0.3640878596280870
  0.8299953149185239  0.0822061150064661  0.6138614216560148
  0.6707515157091964  0.5704153735522428  0.8640764980617373
  0.5857763719050788  0.4160165489710193  0.6141506207608362
 -0.0210305257060177  0.2499978319418477  0.3638656059218525
  0.2723583936905082  0.7500090207828549  0.6138900662594574
  0.2339873670540953  0.2500008500425981  0.8641206776232846
  0.0187094451241244  0.7499982830924393  0.6136319031424102
 -0.0210311771829061  0.2499978519835447  0.8638658131530955
  0.2723580719693763  0.7500082675036301  0.1138902303190311
  0.2339878801323959  0.2500008025565281  0.3641206717911389
  0.0187099026973338  0.7499970338251778  0.1136309952265180
  0.4871288658708613  0.2499946702378278  0.3642389642668866
  0.7727692210991189  0.7499997882189164  0.6139188074747645
  0.7360012106493521  0.2500007297803503  0.8639517598357894
  0.5209778709342175  0.7500028364651067  0.6140106132317522
  0.4871289589230073  0.2499947878496120  0.8642391670202035
  0.7727688151122544  0.7499994784951970  0.1139187702430509
  0.7360007953098880  0.2500005209239424  0.3639521006780428
  0.5209779444712649  0.7500033435730751  0.1140111577907263
 
  0.00000000E+00  0.00000000E+00  0.00000000E+00
  0.00000000E+00  0.00000000E+00  0.00000000E+00
  0.00000000E+00  0.00000000E+00  0.00000000E+00
  0.00000000E+00  0.00000000E+00  0.00000000E+00
  0.00000000E+00  0.00000000E+00  0.00000000E+00
  0.00000000E+00  0.00000000E+00  0.00000000E+00
  0.00000000E+00  0.00000000E+00  0.00000000E+00
  0.00000000E+00  0.00000000E+00  0.00000000E+00
  0.00000000E+00  0.00000000E+00  0.00000000E+00
  0.00000000E+00  0.00000000E+00  0.00000000E+00
  0.00000000E+00  0.00000000E+00  0.00000000E+00
  0.00000000E+00  0.00000000E+00  0.00000000E+00
  0.00000000E+00  0.00000000E+00  0.00000000E+00
  0.00000000E+00  0.00000000E+00  0.00000000E+00
  0.00000000E+00  0.00000000E+00  0.00000000E+00
  0.00000000E+00  0.00000000E+00  0.00000000E+00
  0.00000000E+00  0.00000000E+00  0.00000000E+00
  0.00000000E+00  0.00000000E+00  0.00000000E+00
  0.00000000E+00  0.00000000E+00  0.00000000E+00
  0.00000000E+00  0.00000000E+00  0.00000000E+00
  0.00000000E+00  0.00000000E+00  0.00000000E+00
  0.00000000E+00  0.00000000E+00  0.00000000E+00
  0.00000000E+00  0.00000000E+00  0.00000000E+00
  0.00000000E+00  0.00000000E+00  0.00000000E+00
  0.00000000E+00  0.00000000E+00  0.00000000E+00
  0.00000000E+00  0.00000000E+00  0.00000000E+00
  0.00000000E+00  0.00000000E+00  0.00000000E+00
  0.00000000E+00  0.00000000E+00  0.00000000E+00
  0.00000000E+00  0.00000000E+00  0.00000000E+00
  0.00000000E+00  0.00000000E+00  0.00000000E+00
  0.00000000E+00  0.00000000E+00  0.00000000E+00
  0.00000000E+00  0.00000000E+00  0.00000000E+00
  0.00000000E+00  0.00000000E+00  0.00000000E+00
  0.00000000E+00  0.00000000E+00  0.00000000E+00
  0.00000000E+00  0.00000000E+00  0.00000000E+00
  0.00000000E+00  0.00000000E+00  0.00000000E+00
  0.00000000E+00  0.00000000E+00  0.00000000E+00
  0.00000000E+00  0.00000000E+00  0.00000000E+00
  0.00000000E+00  0.00000000E+00  0.00000000E+00
  0.00000000E+00  0.00000000E+00  0.00000000E+00
  0.00000000E+00  0.00000000E+00  0.00000000E+00
  0.00000000E+00  0.00000000E+00  0.00000000E+00
  0.00000000E+00  0.00000000E+00  0.00000000E+00
  0.00000000E+00  0.00000000E+00  0.00000000E+00
  0.00000000E+00  0.00000000E+00  0.00000000E+00
  0.00000000E+00  0.00000000E+00  0.00000000E+00
  0.00000000E+00  0.00000000E+00  0.00000000E+00
  0.00000000E+00  0.00000000E+00  0.00000000E+00
  0.00000000E+00  0.00000000E+00  0.00000000E+00
  0.00000000E+00  0.00000000E+00  0.00000000E+00
  0.00000000E+00  0.00000000E+00  0.00000000E+00
  0.00000000E+00  0.00000000E+00  0.00000000E+00
  0.00000000E+00  0.00000000E+00  0.00000000E+00
  0.00000000E+00  0.00000000E+00  0.00000000E+00
