54
Time=0.00000000 pbc="T T T" Lattice="10.07540892 0.00001547 -0.00512305 -0.00000970 7.49915531 0.00000143 0.00407038 -0.00000161 7.90805441" energy=-456.21179172 virial="-0.01413462 -0.00006484 -0.00145104 -0.00006484 0.02827518 0.00000768 -0.00145104 0.00000768 -0.01353264" stress="0.00250984 0.00052970 -0.00057874 0.00052970 0.00222957 0.00016172 -0.00057874 0.00016172 0.00227075" Properties=species:S:1:pos:R:3
C 5.48611793 5.61323666 6.83655868
C 5.48408226 5.61323750 2.88253125
C 2.17447447 1.86365715 0.90720850
C 0.38365633 5.61322939 6.83915443
C 2.17651002 1.86365668 4.86123591
C 0.38162047 5.61323008 2.88512724
Fe 0.80948909 0.56344458 0.90789800
Fe 1.74288831 6.92083655 2.88443696
Fe 3.47007513 3.21156405 0.90654603
Fe 9.18759187 4.24209535 6.83468081
Fe 9.18758773 6.98439144 6.83468124
Fe 3.47007810 0.51575313 0.90654538
Fe 1.74289204 4.30562911 2.88443636
Fe 0.80948571 3.16386598 0.90789839
Fe 0.81152451 0.56344355 4.86192582
Fe 1.74492366 6.92083556 6.83846474
Fe 3.47211059 3.21156349 4.86057355
Fe 9.18555619 4.24209594 2.88065329
Fe 9.18555238 6.98439226 2.88065363
Fe 3.47211361 0.51575225 4.86057306
Fe 1.74492776 4.30562830 6.83846421
Fe 0.81152139 3.16386510 4.86192617
Fe 5.92368423 0.61651331 0.90529862
Fe 6.79373822 6.95525754 2.88186960
Fe 8.39453783 3.11208088 0.90404258
Fe 4.18622770 4.25973667 6.83722242
Fe 4.18622333 6.96673289 6.83722301
Fe 8.39454077 0.61525135 0.90404212
Fe 6.79374210 4.27122171 2.88186934
Fe 5.92368157 3.11081025 0.90529910
Fe 5.92571978 0.61651250 4.85932624
Fe 6.79577374 6.95525672 6.83589736
Fe 8.39657329 3.11208012 4.85807025
Fe 4.18419198 4.25973739 2.88319470
Fe 4.18418754 6.96673393 2.88319542
Fe 8.39657628 0.61525056 4.85806969
Fe 6.79577767 4.27122094 6.83589696
Fe 5.92571704 3.11080953 4.85932645
Fe 9.89407015 1.86366822 2.88029532
Fe 2.77003065 5.61323328 4.86092702
Fe 2.40194696 1.86365599 6.83813404
Fe 0.20276508 5.61323009 4.86223327
Fe 9.89610543 1.86366739 6.83432308
Fe 2.76799521 5.61323424 0.90689925
Fe 2.39991159 1.86365671 2.88410678
Fe 0.20072961 5.61323084 0.90820597
Fe 4.92496198 1.86365992 2.88282246
Fe 7.80451504 5.61324111 4.85836887
Fe 7.42642477 1.86366291 6.83557878
Fe 5.26543294 5.61323669 4.85965805
Fe 4.92699723 1.86365919 6.83684986
Fe 7.80247967 5.61324196 0.90434119
Fe 7.42438940 1.86366382 2.88155104
Fe 5.26339745 5.61323746 0.90563074
