58
Lattice="10.060983963202066 9.716409796e-07 0.0275747563905377 6.06812394e-07 7.009625773213008 1.45106382666e-05 0.0235582374059288 1.76484047505e-05 8.522320841962188" Properties=species:S:1:pos:R:3:momenta:R:3 pbc="T T T"
C        5.70368976       5.25721048       6.58479448       0.00000000       0.00000000       0.00000000
C        8.20701107       5.25723926       8.30651917       0.00000000       0.00000000       0.00000000
C        6.85007165       1.75243082       4.44991821       0.00000000       0.00000000       0.00000000
C        5.63843225       5.25721991       2.56428161       0.00000000       0.00000000       0.00000000
C        9.46540029       1.75239010       1.76259186       0.00000000       0.00000000       0.00000000
C        3.10940894       5.25720303       3.91066193       0.00000000       0.00000000       0.00000000
C        0.65142864       5.25727432       6.66738540       0.00000000       0.00000000       0.00000000
C        3.14805431       5.25722450       8.27565458       0.00000000       0.00000000       0.00000000
C        1.86696555       1.75243635       4.57267176       0.00000000       0.00000000       0.00000000
C        0.53930075       5.25723537       2.64909089       0.00000000       0.00000000       0.00000000
Fe       0.89770542       0.51989720       1.28891120       0.00000000       0.00000000       0.00000000
Fe       1.67590962       6.57645184       3.52904965       0.00000000       0.00000000       0.00000000
Fe       3.42565899       2.98145323       0.88465363       0.00000000       0.00000000       0.00000000
Fe       9.24521908       4.02088855       7.19126380       0.00000000       0.00000000       0.00000000
Fe       9.24520900       6.49359653       7.19125326       0.00000000       0.00000000       0.00000000
Fe       3.42567051       0.52337586       0.88465868       0.00000000       0.00000000       0.00000000
Fe       1.67589347       3.93798958       3.52905615       0.00000000       0.00000000       0.00000000
Fe       0.89769280       2.98491681       1.28890960       0.00000000       0.00000000       0.00000000
Fe       0.86641106       0.46766754       5.67028225       0.00000000       0.00000000       0.00000000
Fe       1.69158089       6.50091709       7.79411320       0.00000000       0.00000000       0.00000000
Fe       3.40152028       2.95442277       5.19071405       0.00000000       0.00000000       0.00000000
Fe       9.13072076       3.96763385       3.04025450       0.00000000       0.00000000       0.00000000
Fe       9.13072578       6.54683908       3.04026116       0.00000000       0.00000000       0.00000000
Fe       3.40150999       0.55041486       5.19069633       0.00000000       0.00000000       0.00000000
Fe       1.69156735       4.01356339       7.79410859       0.00000000       0.00000000       0.00000000
Fe       0.86640635       3.03716397       5.67030374       0.00000000       0.00000000       0.00000000
Fe       5.90872103       0.55472411       1.10930076       0.00000000       0.00000000       0.00000000
Fe       6.69281592       6.64132498       3.42694018       0.00000000       0.00000000       0.00000000
Fe       8.41006468       3.09942569       0.81011616       0.00000000       0.00000000       0.00000000
Fe       4.23146947       4.01350672       7.21443334       0.00000000       0.00000000       0.00000000
Fe       4.23146884       6.50095440       7.21442467       0.00000000       0.00000000       0.00000000
Fe       8.41005863       0.40538315       0.81009775       0.00000000       0.00000000       0.00000000
Fe       6.69281469       3.87311809       3.42694905       0.00000000       0.00000000       0.00000000
Fe       5.90871317       2.95009554       1.10931289       0.00000000       0.00000000       0.00000000
Fe       5.87354254       0.47135028       5.55366517       0.00000000       0.00000000       0.00000000
Fe       6.77534659       6.48596811       7.63254861       0.00000000       0.00000000       0.00000000
Fe       8.39073004       2.94521321       5.21474217       0.00000000       0.00000000       0.00000000
Fe       4.19363800       3.96868940       2.92507596       0.00000000       0.00000000       0.00000000
Fe       4.19363827       6.54575335       2.92508831       0.00000000       0.00000000       0.00000000
Fe       8.39071695       0.55962518       5.21473002       0.00000000       0.00000000       0.00000000
Fe       6.77535775       4.02849609       7.63255470       0.00000000       0.00000000       0.00000000
Fe       5.87355191       3.03349072       5.55368908       0.00000000       0.00000000       0.00000000
Fe       0.17694368       1.75241845       3.55021963       0.00000000       0.00000000       0.00000000
Fe       2.38797522       5.25722945       5.70306163       0.00000000       0.00000000       0.00000000
Fe       2.58590173       1.75242389       7.39117660       0.00000000       0.00000000       0.00000000
Fe       9.93466349       5.25722885       4.92462459       0.00000000       0.00000000       0.00000000
Fe       0.07139818       1.75241965       7.68476907       0.00000000       0.00000000       0.00000000
Fe       2.30537379       5.25722145       1.51222948       0.00000000       0.00000000       0.00000000
Fe       2.73100646       1.75241631       2.86149535       0.00000000       0.00000000       0.00000000
Fe       9.87980128       5.25722463       0.85503411       0.00000000       0.00000000       0.00000000
Fe       5.17609543       1.75241029       3.29623223       0.00000000       0.00000000       0.00000000
Fe       7.44779830       5.25723338       5.42260390       0.00000000       0.00000000       0.00000000
Fe       7.60264419       1.75242006       7.37335513       0.00000000       0.00000000       0.00000000
Fe       4.84985961       5.25722500       4.90491460       0.00000000       0.00000000       0.00000000
Fe       5.07943642       1.75241806       7.53989706       0.00000000       0.00000000       0.00000000
Fe       7.30339193       5.25722225       1.48116702       0.00000000       0.00000000       0.00000000
Fe       7.78848038       1.75241476       2.80284499       0.00000000       0.00000000       0.00000000
Fe       4.85071400       5.25722498       0.76175216       0.00000000       0.00000000       0.00000000
