 C Fe                                   
   1.00000000000000     
    10.0609839632020659    0.0000009716409796    0.0275747563905377
     0.0000006068123940    7.0096257732130081    0.0000145106382666
     0.0235582374059288    0.0000176484047505    8.5223208419621876
   C    Fe
    10    48
Direct
  0.5651067628412472  0.7499967186965431  0.7708229996851860
  0.8134503526195527  0.7500002827235333  0.9720447920700627
  0.6796375423455349  0.2500020737228445  0.5199491811162845
  0.5597251792355651  0.7499992517383620  0.2990777385586743
  0.9403254724708123  0.2499970252834238  0.2037777057808279
  0.3079839671146073  0.7499964784273750  0.4578750949629584
  0.0629165469853074  0.7500058674852550  0.7821390127161162
  0.3106257989722299  0.7499982527128778  0.9700501101102215
  0.1843099275258295  0.2500028909067928  0.5359556292076794
  0.0528756909684227  0.7500014985132613  0.3106691268304612
  0.0888729395233898  0.0741686450957017  0.1509517771346890
  0.1656067010244593  0.9382019226186865  0.4135574731658936
  0.3402489507477052  0.4253366988370505  0.1027026786738830
  0.9169490662940125  0.5736216097192814  0.8408473427228080
  0.9169480478057970  0.9263805238671712  0.8408455079426251
  0.3402501139533212  0.0746650018571632  0.1027038645478454
  0.1656051151720693  0.5617963430012096  0.4135588820003441
  0.0888716657663310  0.4258307302167604  0.1509509950066597
  0.0845586391289521  0.0667162178025301  0.6650711356931790
  0.1659924884505109  0.9274248025514070  0.9140142318317430
  0.3366665760392613  0.4214792358085803  0.6079827940752427
  0.9067090673859654  0.5660254705931999  0.3538055026887714
  0.9067095432652449  0.9339773858502309  0.3538056553082135
  0.3366655777462150  0.0785211392091366  0.6079813017971935
  0.1659911638398635  0.5725765150540121  0.9140142997696020
  0.0845581449630472  0.4332830663355811  0.6650730348377667
  0.5869902301645759  0.0791370741636928  0.1282647667325781
  0.6642882001442607  0.9474567533665964  0.3999625111161870
  0.8356924887637081  0.4421667213885752  0.0923534495943097
  0.4186030134973395  0.5725685694301580  0.8451784774219658
  0.4186029335636299  0.9274302639147707  0.8451768566021505
  0.8356919144407799  0.0578320050100873  0.0923519453521408
  0.6642880978127806  0.5525416783608963  0.3999642246200688
  0.5869894264405279  0.4208630821621803  0.1282656115929339
  0.5822725613507350  0.0672415708089050  0.6497770123404915
  0.6713357878750056  0.9252921484872340  0.8934213348352463
  0.8325605319005426  0.4201653193938341  0.6091977195912707
  0.4160212980412069  0.5661761536610765  0.3418782413528255
  0.4160213004454431  0.9338225925864110  0.3418790639291418
  0.8325592534844318  0.0798350206405168  0.6091968767359733
  0.6713369155504831  0.5747068100949746  0.8934226424457939
  0.5822734648218267  0.4327590065857206  0.6497791923277442
  0.0166117885621448  0.2500006618473386  0.4165247940069703
  0.2357848705616041  0.7499997275764969  0.6684269627272644
  0.2549939067588850  0.2500002723893375  0.8664472641372922
  0.9860988881310527  0.7499997752374342  0.5746582834465127
  0.0049851413068422  0.2499996137861626  0.9017060164351742
  0.2287261912133082  0.7499998263266522  0.1767020457563921
  0.2706610938787525  0.2500005274751490  0.3348886249073397
  0.9817640258750885  0.7500003752407473  0.0971509213212044
  0.5135703111076469  0.2499995076024552  0.3851142296001700
  0.7387810692788743  0.7500003065321682  0.6338908628847733
  0.7536359629172361  0.2499996656955680  0.8627427090096346
  0.4807022058279454  0.7499992972108436  0.5739807922382821
  0.5027969524752026  0.2499993647149006  0.8830961736175005
  0.7255107892348585  0.7499998841163756  0.1714498170459259
  0.7733628554773719  0.2500002568499352  0.3263801163069758
  0.4819254869106492  0.7500005187148354  0.0878225917327985
 
  0.00000000E+00  0.00000000E+00  0.00000000E+00
  0.00000000E+00  0.00000000E+00  0.00000000E+00
  0.00000000E+00  0.00000000E+00  0.00000000E+00
  0.00000000E+00  0.00000000E+00  0.00000000E+00
  0.00000000E+00  0.00000000E+00  0.00000000E+00
  0.00000000E+00  0.00000000E+00  0.00000000E+00
  0.00000000E+00  0.00000000E+00  0.00000000E+00
  0.00000000E+00  0.00000000E+00  0.00000000E+00
  0.00000000E+00  0.00000000E+00  0.00000000E+00
  0.00000000E+00  0.00000000E+00  0.00000000E+00
  0.00000000E+00  0.00000000E+00  0.00000000E+00
  0.00000000E+00  0.00000000E+00  0.00000000E+00
  0.00000000E+00  0.00000000E+00  0.00000000E+00
  0.00000000E+00  0.00000000E+00  0.00000000E+00
  0.00000000E+00  0.00000000E+00  0.00000000E+00
  0.00000000E+00  0.00000000E+00  0.00000000E+00
  0.00000000E+00  0.00000000E+00  0.00000000E+00
  0.00000000E+00  0.00000000E+00  0.00000000E+00
  0.00000000E+00  0.00000000E+00  0.00000000E+00
  0.00000000E+00  0.00000000E+00  0.00000000E+00
  0.00000000E+00  0.00000000E+00  0.00000000E+00
  0.00000000E+00  0.00000000E+00  0.00000000E+00
  0.00000000E+00  0.00000000E+00  0.00000000E+00
  0.00000000E+00  0.00000000E+00  0.00000000E+00
  0.00000000E+00  0.00000000E+00  0.00000000E+00
  0.00000000E+00  0.00000000E+00  0.00000000E+00
  0.00000000E+00  0.00000000E+00  0.00000000E+00
  0.00000000E+00  0.00000000E+00  0.00000000E+00
  0.00000000E+00  0.00000000E+00  0.00000000E+00
  0.00000000E+00  0.00000000E+00  0.00000000E+00
  0.00000000E+00  0.00000000E+00  0.00000000E+00
  0.00000000E+00  0.00000000E+00  0.00000000E+00
  0.00000000E+00  0.00000000E+00  0.00000000E+00
  0.00000000E+00  0.00000000E+00  0.00000000E+00
  0.00000000E+00  0.00000000E+00  0.00000000E+00
  0.00000000E+00  0.00000000E+00  0.00000000E+00
  0.00000000E+00  0.00000000E+00  0.00000000E+00
  0.00000000E+00  0.00000000E+00  0.00000000E+00
  0.00000000E+00  0.00000000E+00  0.00000000E+00
  0.00000000E+00  0.00000000E+00  0.00000000E+00
  0.00000000E+00  0.00000000E+00  0.00000000E+00
  0.00000000E+00  0.00000000E+00  0.00000000E+00
  0.00000000E+00  0.00000000E+00  0.00000000E+00
  0.00000000E+00  0.00000000E+00  0.00000000E+00
  0.00000000E+00  0.00000000E+00  0.00000000E+00
  0.00000000E+00  0.00000000E+00  0.00000000E+00
  0.00000000E+00  0.00000000E+00  0.00000000E+00
  0.00000000E+00  0.00000000E+00  0.00000000E+00
  0.00000000E+00  0.00000000E+00  0.00000000E+00
  0.00000000E+00  0.00000000E+00  0.00000000E+00
  0.00000000E+00  0.00000000E+00  0.00000000E+00
  0.00000000E+00  0.00000000E+00  0.00000000E+00
  0.00000000E+00  0.00000000E+00  0.00000000E+00
  0.00000000E+00  0.00000000E+00  0.00000000E+00
  0.00000000E+00  0.00000000E+00  0.00000000E+00
  0.00000000E+00  0.00000000E+00  0.00000000E+00
  0.00000000E+00  0.00000000E+00  0.00000000E+00
  0.00000000E+00  0.00000000E+00  0.00000000E+00
