58
Time=0.00000000 pbc="T T T" Lattice="9.98924611 -0.00929498 0.00457212 -0.01333229 6.92340008 -0.01250595 -0.00317152 -0.01025342 8.59560649" energy=-491.34828924 virial="-0.15597116 0.01847426 0.00014783 0.01847426 -1.91145232 -0.15893960 0.00014783 -0.15893960 0.78947123" stress="0.00219675 0.00054560 -0.00039350 0.00054560 -0.00076151 -0.00109089 -0.00039350 -0.00109089 0.00398189" Properties=species:S:1:pos:R:3
C 5.65053745 5.29311142 6.64869465
C 8.14520979 5.17178885 8.31221616
C 6.86425037 1.67860359 4.50195871
C 5.65673493 5.25600609 2.49210900
C 9.42726016 1.89841085 1.78792262
C 3.12832692 5.27468134 3.92872128
C 0.65162952 5.28818847 6.67869420
C 3.13420287 5.21315796 8.30745502
C 1.91831992 1.64286471 4.56939937
C 0.57592192 5.23614081 2.58495603
Fe 0.92071920 0.58668048 1.31669478
Fe 1.67964370 6.55670700 3.54150290
Fe 3.45089162 3.03597093 0.78536294
Fe 9.19211962 4.00431582 7.13357163
Fe 9.14749751 6.46295118 7.20359392
Fe 3.43272632 0.59752734 0.82651704
Fe 1.70466640 3.97848414 3.53826956
Fe 0.98641864 3.02968374 1.30647275
Fe 0.91644182 0.44207795 5.73829992
Fe 1.67694322 6.47442926 7.87182880
Fe 3.42096401 2.95406163 5.13889138
Fe 9.14138918 3.89867594 2.89831887
Fe 9.08120390 6.46948802 2.94149196
Fe 3.48251684 0.54249925 5.11733999
Fe 1.66076613 3.99654322 7.80852535
Fe 0.89754095 2.97638838 5.64238233
Fe 5.91851729 0.60700168 1.19644982
Fe 6.66253214 6.59510278 3.49729994
Fe 8.39794377 3.11903814 0.67580853
Fe 4.19236636 4.00224749 7.18066480
Fe 4.16370825 6.48240487 7.21664974
Fe 8.40821638 0.54378877 0.77004330
Fe 6.70884577 3.95504721 3.48451031
Fe 5.93443976 2.98903392 1.19860924
Fe 5.89783252 0.46449954 5.67581727
Fe 6.70864783 6.44533450 7.78947525
Fe 8.38952842 2.96106729 5.12954925
Fe 4.20334469 3.97671456 2.89803393
Fe 4.20053702 6.51418188 2.87278669
Fe 8.45264492 0.56264661 5.13744076
Fe 6.67648253 3.99640722 7.70496751
Fe 5.85918542 2.98590023 5.57975026
Fe 0.24076602 1.75315645 3.56214619
Fe 2.36629676 5.21373939 5.71373579
Fe 2.64839984 1.76984686 7.32462936
Fe 9.82748668 5.19817547 4.89611700
Fe 0.14829253 1.78416605 7.73632263
Fe 2.32249649 5.26920168 1.47809895
Fe 2.79219213 1.80449004 2.83836077
Fe 9.83645995 5.25898841 0.76046325
Fe 5.20977256 1.78520557 3.39971447
Fe 7.37540078 5.22674228 5.52844928
Fe 7.62468572 1.75908836 7.31067637
Fe 4.83538418 5.21613663 4.93229139
Fe 5.12807086 1.77962650 7.68007889
Fe 7.31541764 5.26304219 1.45478574
Fe 7.74207942 1.79240131 2.79841607
Fe 4.84047959 5.25546449 0.71777215
58
Time=0.00000000 pbc="T T T" Lattice="9.98924611 -0.00929498 0.00457212 -0.01333229 6.92340008 -0.01250595 -0.00317152 -0.01025342 8.59560649" energy=-491.34828924 virial="-0.15597116 0.01847426 0.00014783 0.01847426 -1.91145232 -0.15893960 0.00014783 -0.15893960 0.78947123" stress="0.00227321 0.00009205 0.00048017 0.00009205 -0.00029208 -0.00037156 0.00048017 -0.00037156 0.00343600" Properties=species:S:1:pos:R:3
C 5.65053745 5.29311142 6.64869465
C 8.14520979 5.17178885 8.31221616
C 6.86425037 1.67860359 4.50195871
C 5.65673493 5.25600609 2.49210900
C 9.42726016 1.89841085 1.78792262
C 3.12832692 5.27468134 3.92872128
C 0.65162952 5.28818847 6.67869420
C 3.13420287 5.21315796 8.30745502
C 1.91831992 1.64286471 4.56939937
C 0.57592192 5.23614081 2.58495603
Fe 0.92071920 0.58668048 1.31669478
Fe 1.67964370 6.55670700 3.54150290
Fe 3.45089162 3.03597093 0.78536294
Fe 9.19211962 4.00431582 7.13357163
Fe 9.14749751 6.46295118 7.20359392
Fe 3.43272632 0.59752734 0.82651704
Fe 1.70466640 3.97848414 3.53826956
Fe 0.98641864 3.02968374 1.30647275
Fe 0.91644182 0.44207795 5.73829992
Fe 1.67694322 6.47442926 7.87182880
Fe 3.42096401 2.95406163 5.13889138
Fe 9.14138918 3.89867594 2.89831887
Fe 9.08120390 6.46948802 2.94149196
Fe 3.48251684 0.54249925 5.11733999
Fe 1.66076613 3.99654322 7.80852535
Fe 0.89754095 2.97638838 5.64238233
Fe 5.91851729 0.60700168 1.19644982
Fe 6.66253214 6.59510278 3.49729994
Fe 8.39794377 3.11903814 0.67580853
Fe 4.19236636 4.00224749 7.18066480
Fe 4.16370825 6.48240487 7.21664974
Fe 8.40821638 0.54378877 0.77004330
Fe 6.70884577 3.95504721 3.48451031
Fe 5.93443976 2.98903392 1.19860924
Fe 5.89783252 0.46449954 5.67581727
Fe 6.70864783 6.44533450 7.78947525
Fe 8.38952842 2.96106729 5.12954925
Fe 4.20334469 3.97671456 2.89803393
Fe 4.20053702 6.51418188 2.87278669
Fe 8.45264492 0.56264661 5.13744076
Fe 6.67648253 3.99640722 7.70496751
Fe 5.85918542 2.98590023 5.57975026
Fe 0.24076602 1.75315645 3.56214619
Fe 2.36629676 5.21373939 5.71373579
Fe 2.64839984 1.76984686 7.32462936
Fe 9.82748668 5.19817547 4.89611700
Fe 0.14829253 1.78416605 7.73632263
Fe 2.32249649 5.26920168 1.47809895
Fe 2.79219213 1.80449004 2.83836077
Fe 9.83645995 5.25898841 0.76046325
Fe 5.20977256 1.78520557 3.39971447
Fe 7.37540078 5.22674228 5.52844928
Fe 7.62468572 1.75908836 7.31067637
Fe 4.83538418 5.21613663 4.93229139
Fe 5.12807086 1.77962650 7.68007889
Fe 7.31541764 5.26304219 1.45478574
Fe 7.74207942 1.79240131 2.79841607
Fe 4.84047959 5.25546449 0.71777215
