C  Fe
 1.0000000000000000
     5.5719813000000000   -0.0000000100000000   -0.0000002600000000
    -0.0000000100000000    6.2010832599999999   -0.0000000200000000
    -0.0000001400000000   -0.0000000100000000   11.1943315200000004
 C   Fe 
   3  32
Cartesian
  1.4093510499999999  3.1028667400000001  9.8305366500000009
  4.1953415800000000  0.0023277300000000  4.2033235600000003
  4.1953409800000001  3.1028673300000000  7.0472013000000002
  5.5583847700000000  0.0023264800000000  0.0925756000000000
  0.0193406400000000  0.0023286600000000  2.8278038500000000
  0.0392557900000000  0.0023279900000000  5.5608989700000002
  0.0172788600000000  0.0023260500000000  8.4392142799999998
  0.0160841700000000  3.1028667900000002  0.0163611500000000
  0.0488788900000000  3.1028681300000001  2.7770417699999999
  0.0419057900000000  3.1028675699999999  5.6889398399999997
  0.0190392400000000  3.1028661400000002  8.4378325499999995
  2.8323016999999999  0.0023265500000000  0.0925756600000000
  2.7993614299999998  0.0023285500000000  2.8278039599999998
  2.7794459300000001  0.0023279200000000  5.5608985999999998
  2.8014234500000001  0.0023261100000000  8.4392138699999997
  2.8026188400000001  3.1028667799999998  0.0163604700000000
  2.7698229599999999  3.1028682800000000  2.7770418600000002
  2.7767955099999999  3.1028675899999998  5.6889395100000000
  2.7996619900000002  3.1028663399999998  8.4378321300000003
  1.4093518100000000  1.5411826900000001  1.4309504200000001
  1.4093506700000000  1.5905866099999999  4.2138549599999999
  1.4093506499999999  1.5046713700000001  7.0208076999999998
  1.4093516300000000  1.3027464200000001  9.8594311599999997
  1.4093516699999999  4.6645534000000000  1.4309508900000001
  1.4093507400000000  4.6151508100000003  4.2138551399999997
  1.4093506200000001  4.7010633200000003  7.0208075100000000
  1.4093516399999999  4.9029873300000002  9.8594311200000000
  4.1953424899999998  1.5740401200000000  1.4258457200000001
  4.1953416199999998  1.8092499900000001  4.2042237199999999
  4.1953415900000000  1.3042883900000000  7.0307875900000001
  4.1953421700000000  1.5233415800000001  9.8526108800000003
  4.1953424999999998  4.6316959999999998  1.4258458100000000
  4.1953416700000004  4.3964880300000004  4.2042238699999999
  4.1953416900000002  4.9014462400000003  7.0307870599999998
  4.1953423200000000  4.6823921600000000  9.8526107399999994
