51
Lattice="9.944247930549132 -7.254373097e-07 -0.0121755824964309 6.246939176e-07 7.341705089039185 7.139313248e-07 0.0093145196665987 -7.020885543e-07 7.992845326792356" Properties=species:S:1:pos:R:3:momenta:R:3 pbc="T T T"
C        5.33826974       5.50627875       2.94229890       0.00000000       0.00000000       0.00000000
C        0.39285771       5.50627984       6.94619595       0.00000000       0.00000000       0.00000000
C        0.36468824       5.50627930       2.95060651       0.00000000       0.00000000       0.00000000
Fe       0.84157297       0.61138333       0.94334055       0.00000000       0.00000000       0.00000000
Fe       1.68514525       6.83977858       2.94846054       0.00000000       0.00000000       0.00000000
Fe       3.32154943       3.06849547       0.93264532       0.00000000       0.00000000       0.00000000
Fe       9.03745972       4.16672489       6.93703173       0.00000000       0.00000000       0.00000000
Fe       9.03745726       6.84582699       6.93704528       0.00000000       0.00000000       0.00000000
Fe       3.32154771       0.60235697       0.93265404       0.00000000       0.00000000       0.00000000
Fe       1.68514804       4.17277953       2.94844917       0.00000000       0.00000000       0.00000000
Fe       0.84157477       3.05946969       0.94333027       0.00000000       0.00000000       0.00000000
Fe       0.84552138       0.61126476       4.95513746       0.00000000       0.00000000       0.00000000
Fe       1.72884283       6.82658118       6.94464968       0.00000000       0.00000000       0.00000000
Fe       3.32564164       3.06887131       4.96041556       0.00000000       0.00000000       0.00000000
Fe       9.02682529       4.15283553       2.94034851       0.00000000       0.00000000       0.00000000
Fe       9.02682395       6.85971912       2.94035760       0.00000000       0.00000000       0.00000000
Fe       3.32563675       0.60198058       4.96042386       0.00000000       0.00000000       0.00000000
Fe       1.72884749       4.18597681       6.94464357       0.00000000       0.00000000       0.00000000
Fe       0.84552669       3.05958718       4.95512786       0.00000000       0.00000000       0.00000000
Fe       5.80827822       0.60617908       0.93056586       0.00000000       0.00000000       0.00000000
Fe       6.65623102       6.83988820       2.94277048       0.00000000       0.00000000       0.00000000
Fe       8.27576458       3.06341186       0.93280222       0.00000000       0.00000000       0.00000000
Fe       4.18063987       4.26337716       6.94081547       0.00000000       0.00000000       0.00000000
Fe       4.18063532       6.74917896       6.94081787       0.00000000       0.00000000       0.00000000
Fe       8.27576072       0.60743941       0.93281287       0.00000000       0.00000000       0.00000000
Fe       6.65623374       4.17266899       2.94275775       0.00000000       0.00000000       0.00000000
Fe       5.80827942       3.06467023       0.93055757       0.00000000       0.00000000       0.00000000
Fe       5.81197066       0.60521542       4.95800849       0.00000000       0.00000000       0.00000000
Fe       6.63042959       6.74598388       6.93987224       0.00000000       0.00000000       0.00000000
Fe       8.27888895       3.06405494       4.94920000       0.00000000       0.00000000       0.00000000
Fe       4.05732305       4.14491398       2.94395381       0.00000000       0.00000000       0.00000000
Fe       4.05732204       6.86764126       2.94395922       0.00000000       0.00000000       0.00000000
Fe       8.27888460       0.60679344       4.94920996       0.00000000       0.00000000       0.00000000
Fe       6.63043435       4.26656986       6.93987169       0.00000000       0.00000000       0.00000000
Fe       5.81197650       3.06563696       4.95799927       0.00000000       0.00000000       0.00000000
Fe      -0.10464426       1.83542574       2.95019690       0.00000000       0.00000000       0.00000000
Fe       2.71691798       5.50627845       4.94771010       0.00000000       0.00000000       0.00000000
Fe       2.37676801       1.83542634       6.94258091       0.00000000       0.00000000       0.00000000
Fe       0.19558657       5.50627874       4.94714430       0.00000000       0.00000000       0.00000000
Fe      -0.12368507       1.83542511       6.94739630       0.00000000       0.00000000       0.00000000
Fe       2.71532057       5.50627885       0.94556557       0.00000000       0.00000000       0.00000000
Fe       2.39896754       1.83542626       2.94605417       0.00000000       0.00000000       0.00000000
Fe       0.19565683       5.50627849       0.95431798       0.00000000       0.00000000       0.00000000
Fe       4.87327510       1.83542530       2.94491808       0.00000000       0.00000000       0.00000000
Fe       7.64754169       5.50627649       4.93977492       0.00000000       0.00000000       0.00000000
Fe       7.32131553       1.83542485       6.93741962       0.00000000       0.00000000       0.00000000
Fe       5.16432771       5.50627700       4.91347800       0.00000000       0.00000000       0.00000000
Fe       4.83511196       1.83542567       6.94178501       0.00000000       0.00000000       0.00000000
Fe       7.64724397       5.50627875       0.94413107       0.00000000       0.00000000       0.00000000
Fe       7.35737797       1.83542562       2.94175942       0.00000000       0.00000000       0.00000000
Fe       5.16301707       5.50627925       0.97467374       0.00000000       0.00000000       0.00000000
