51
Time=0.00000000 pbc="T T T" Lattice="9.94091924 -0.00002664 -0.01195333 -0.00003450 7.37076466 0.00000073 0.00952997 -0.00000073 7.94506705" energy=-428.94514988 virial="0.01262297 0.00007251 0.00060287 0.00007251 0.04631782 -0.00000379 0.00060287 -0.00000379 -0.06353967" stress="0.00257447 0.00030018 -0.00009788 0.00030018 0.00271769 0.00050843 -0.00009788 0.00050843 0.00149430" Properties=species:S:1:pos:R:3
C 5.35209499 5.51311222 2.95014816
C 0.40650630 5.51312735 6.92863673
C 0.38540063 5.51312679 2.95612208
Fe 0.83403963 0.60072439 0.96183472
Fe 1.70226575 6.84084482 2.95453658
Fe 3.32078097 3.06298381 0.94951415
Fe 9.04640438 4.16785120 6.91824626
Fe 9.04640215 6.85835087 6.91824657
Fe 3.32082295 0.59249614 0.94951383
Fe 1.70226686 4.18540639 2.95453640
Fe 0.83399834 3.05477078 0.96183547
Fe 0.83882259 0.60072410 4.94931858
Fe 1.74153043 6.82699394 6.92703016
Fe 3.32558618 3.06298341 4.95565906
Fe 9.04503704 4.15689709 2.94570744
Fe 9.04503595 6.86930576 2.94570755
Fe 3.32562825 0.59249580 4.95565861
Fe 1.74152913 4.19925737 6.92702979
Fe 0.83878132 3.05477019 4.94931832
Fe 5.79612670 0.59220607 0.94972475
Fe 6.66910569 6.84416532 2.94856395
Fe 8.27060713 3.05994995 0.95108412
Fe 4.18971055 4.27136677 6.92408568
Fe 4.18970729 6.75486418 6.92408588
Fe 8.27064823 0.59549757 0.95108370
Fe 6.66910489 4.18205397 2.94856369
Fe 5.79608513 3.06325599 0.94972573
Fe 5.80092449 0.59220583 4.94949470
Fe 6.63121876 6.75958271 6.92114996
Fe 8.27539446 3.05994953 4.94218539
Fe 4.07632721 4.14701864 2.95168132
Fe 4.07632512 6.87920873 2.95168167
Fe 8.27543562 0.59549732 4.94218540
Fe 6.63122191 4.26662928 6.92114991
Fe 5.80088279 3.06325554 4.94949438
Fe 9.81742003 1.82772332 2.94477660
Fe 2.72239477 5.51312068 4.94086581
Fe 2.34942230 1.82774618 6.92629709
Fe 0.19728815 5.51312762 4.94327531
Fe 9.79750327 1.82772352 6.91734122
Fe 2.71762656 5.51312104 0.96576085
Fe 2.37314767 1.82774409 2.95372809
Fe 0.19252177 5.51312805 0.96942586
Fe 4.85432963 1.82773529 2.95074438
Fe 7.65353128 5.51310465 4.93901068
Fe 7.29905873 1.82772612 6.92034545
Fe 5.17082586 5.51311137 4.91648395
Fe 4.82212962 1.82773605 6.92332379
Fe 7.64875323 5.51310488 0.95575706
Fe 7.33476262 1.82772852 2.94776190
Fe 5.16610925 5.51311169 0.98425330
