59
Lattice="10.041456492416128 6.7328213486e-06 0.0208135383136943 4.5704504725e-06 6.833016512715409 1.33258484238e-05 0.0183079829956296 1.6744767241e-05 8.715991081155975" Properties=species:S:1:pos:R:3:momenta:R:3 pbc="T T T"
C        5.66230605       5.12478500       6.81414325       0.00000000       0.00000000       0.00000000
C        4.38067951       1.70827556       6.31589826       0.00000000       0.00000000       0.00000000
C        8.15664787       5.12478502       8.45273295       0.00000000       0.00000000       0.00000000
C        6.88509886       1.70826461       4.59698494       0.00000000       0.00000000       0.00000000
C        5.62874018       5.12477604       2.49059016       0.00000000       0.00000000       0.00000000
C        3.11266878       5.12476030       4.04483190       0.00000000       0.00000000       0.00000000
C        0.61137807       5.12478324       6.81332370       0.00000000       0.00000000       0.00000000
C        9.39512517       1.70827653       6.33814024       0.00000000       0.00000000       0.00000000
C        3.11971150       5.12476916       8.42327127       0.00000000       0.00000000       0.00000000
C        1.86502621       1.70826424       4.57986030       0.00000000       0.00000000       0.00000000
C        0.55696683       5.12477024       2.56573698       0.00000000       0.00000000       0.00000000
Fe       0.90456272       0.50202354       1.34577576       0.00000000       0.00000000       0.00000000
Fe       1.63358249       6.39830860       3.60166195       0.00000000       0.00000000       0.00000000
Fe       3.41587922       2.91956512       0.84298996       0.00000000       0.00000000       0.00000000
Fe       9.17525878       3.87155169       7.31311305       0.00000000       0.00000000       0.00000000
Fe       9.17526094       6.37801866       7.31312386       0.00000000       0.00000000       0.00000000
Fe       3.41586886       0.49695935       0.84299911       0.00000000       0.00000000       0.00000000
Fe       1.63357571       3.85122855       3.60166027       0.00000000       0.00000000       0.00000000
Fe       0.90456919       2.91448224       1.34577436       0.00000000       0.00000000       0.00000000
Fe       0.87013236       0.47732018       5.78097652       0.00000000       0.00000000       0.00000000
Fe       1.65379054       6.35354000       7.96043616       0.00000000       0.00000000       0.00000000
Fe       3.38187884       2.93219520       5.11387036       0.00000000       0.00000000       0.00000000
Fe       9.12331201       3.89297719       3.02294981       0.00000000       0.00000000       0.00000000
Fe       9.12331282       6.35657119       3.02296238       0.00000000       0.00000000       0.00000000
Fe       3.38187620       0.48434253       5.11387388       0.00000000       0.00000000       0.00000000
Fe       1.65378534       3.89601499       7.96042824       0.00000000       0.00000000       0.00000000
Fe       0.87013654       2.93920647       5.78098090       0.00000000       0.00000000       0.00000000
Fe       5.93412795       0.50018062       1.32978620       0.00000000       0.00000000       0.00000000
Fe       6.63976364       6.41008002       3.60619002       0.00000000       0.00000000       0.00000000
Fe       8.44738787       2.92417160       0.87393261       0.00000000       0.00000000       0.00000000
Fe       4.15030086       3.86753401       7.29333812       0.00000000       0.00000000       0.00000000
Fe       4.15029967       6.38202270       7.29335315       0.00000000       0.00000000       0.00000000
Fe       8.44737786       0.49235068       0.87393860       0.00000000       0.00000000       0.00000000
Fe       6.63975874       3.83946714       3.60618880       0.00000000       0.00000000       0.00000000
Fe       5.93413537       2.91633346       1.32978409       0.00000000       0.00000000       0.00000000
Fe       5.89268591       0.47939936       5.79402977       0.00000000       0.00000000       0.00000000
Fe       6.69664759       6.34811447       7.94774662       0.00000000       0.00000000       0.00000000
Fe       8.38783854       2.92699964       5.14539833       0.00000000       0.00000000       0.00000000
Fe       4.15869389       3.89395450       2.93525948       0.00000000       0.00000000       0.00000000
Fe       4.15869321       6.35558689       2.93526975       0.00000000       0.00000000       0.00000000
Fe       8.38783627       0.48954064       5.14540495       0.00000000       0.00000000       0.00000000
Fe       6.69664509       3.90145463       7.94774470       0.00000000       0.00000000       0.00000000
Fe       5.89269373       2.93713674       5.79403275       0.00000000       0.00000000       0.00000000
Fe       0.17801915       1.70826023       3.49440029       0.00000000       0.00000000       0.00000000
Fe       2.33072134       5.12477478       5.82443721       0.00000000       0.00000000       0.00000000
Fe       2.70004703       1.70826981       7.40697012       0.00000000       0.00000000       0.00000000
Fe       9.84301610       5.12477766       5.05374178       0.00000000       0.00000000       0.00000000
Fe       0.24370897       1.70826827       8.04339598       0.00000000       0.00000000       0.00000000
Fe       2.29388803       5.12476521       1.48779167       0.00000000       0.00000000       0.00000000
Fe       2.75110596       1.70826390       2.84822821       0.00000000       0.00000000       0.00000000
Fe       9.84042497       5.12476863       0.77500200       0.00000000       0.00000000       0.00000000
Fe       5.19538192       1.70826476       3.48938663       0.00000000       0.00000000       0.00000000
Fe       7.36633195       5.12477937       5.71265404       0.00000000       0.00000000       0.00000000
Fe       7.72597075       1.70827806       7.42917755       0.00000000       0.00000000       0.00000000
Fe       4.82918033       5.12477502       5.06808077       0.00000000       0.00000000       0.00000000
Fe       5.26457225       1.70827302       8.05051685       0.00000000       0.00000000       0.00000000
Fe       7.33729395       5.12476739       1.51217284       0.00000000       0.00000000       0.00000000
Fe       7.76311840       1.70826800       2.86521746       0.00000000       0.00000000       0.00000000
Fe       4.82466193       5.12476698       0.70985909       0.00000000       0.00000000       0.00000000
