 C Fe                                   
   1.00000000000000     
    10.0414564924161276    0.0000067328213486    0.0208135383136943
     0.0000045704504725    6.8330165127154094    0.0000133258484238
     0.0183079829956296    0.0000167447672410    8.7159910811559751
   C    Fe
    11    48
Direct
  0.5624696075320030  0.7500008425328030  0.7804535601193371
  0.4349399727064203  0.2500009344147368  0.7235943950225522
  0.8105323068794552  0.7500001428321943  0.9678592868898538
  0.6847086051854894  0.2499995711648928  0.5257842004917631
  0.5600312830759303  0.7500007500817460  0.2844110223782463
  0.3091366973670341  0.7499982548581019  0.4633308642577774
  0.0594600838818664  0.7500010781431835  0.7815607042767826
  0.9343118293378291  0.2500005810692106  0.7249537679471725
  0.3089221645029850  0.7499983208219999  0.9656769300342616
  0.1847752996781532  0.2500000110137607  0.5250132890923728
  0.0549299279081421  0.7500003738861722  0.2942389083853044
  0.0898016639291546  0.0734697994243754  0.1541885111336529
  0.1619306931959331  0.9363800873770695  0.4128364854203617
  0.3400026119735589  0.4272726718809635  0.0959050551016690
  0.9122117759876009  0.5665918594654273  0.8368662926413062
  0.9122118221155326  0.9334089115114250  0.8368669725198726
  0.3400017394442874  0.0727285599316021  0.0959066493347852
  0.1619301868083284  0.5636193821965321  0.4128368636159455
  0.0898021488304492  0.4265289050617664  0.1541878096047320
  0.0854450559948493  0.0698532635430657  0.6630568020220605
  0.1630313802852822  0.9298270544880313  0.9129232046981371
  0.3357231956121098  0.4291198661562776  0.5859204084087083
  0.9079359557805794  0.5697286541269692  0.3446590098701839
  0.9079358706423831  0.9302713220115139  0.3446599007038295
  0.3357230935048776  0.0708809138335493  0.5859213603479144
  0.1630310263819971  0.5701725735599663  0.9129228471681687
  0.0854453082004541  0.4301460107674993  0.6630567532807041
  0.5906872394616228  0.0731996050102328  0.1511579033700211
  0.6604832116065538  0.9381023239416739  0.4121654663521306
  0.8410719106470977  0.4279463235969909  0.0982586167852706
  0.4117925123862267  0.5660043747260082  0.8357924699371841
  0.4117922248283734  0.9339953908835653  0.8357936329387152
  0.8410710733833565  0.0720535902037196  0.0982598495813309
  0.6604828940551913  0.5618976303456602  0.4121659022520071
  0.5906878194932108  0.4267993425067635  0.1511571182309840
  0.5856262796401667  0.0701570546609151  0.6633600039697818
  0.6652399657534483  0.9290325490962091  0.9102680544443614
  0.8342480138865362  0.4283590070582319  0.5883472027187493
  0.4135399932364794  0.5698721907049373  0.3357787570346394
  0.4135397608798097  0.9301277812348654  0.3357793857939451
  0.8342479471929465  0.0716411519138463  0.5883485069150792
  0.6652398795086382  0.5709681666788045  0.9102683811178213
  0.5856268952830566  0.4298426153247452  0.6633597941662476
  0.0169974097827820  0.2499998945470511  0.4008773239440730
  0.2308921791599716  0.7499999509711018  0.6676947552512346
  0.2673416160455819  0.2499999508232356  0.8491750848289717
  0.9791846534170698  0.7499998555958529  0.5774846992665437
  0.0225877223095045  0.2499997859006473  0.9227777361099341
  0.2281311967879950  0.7499997715049467  0.1701508691731159
  0.2733800677942085  0.2500003613513759  0.3261287033573598
  0.9798216533970093  0.7499997357789279  0.0865763219838101
  0.5166654762195378  0.2500000693303335  0.3991089052408859
  0.7323998373279714  0.7500001624422538  0.6536721018641388
  0.7678565521481779  0.2500006608534178  0.8505277641500318
  0.4798658817334225  0.7499999544440822  0.5803221944462533
  0.5226018568515438  0.2499999899638138  0.9224007054400569
  0.7303866878824969  0.7499995921418731  0.1717487896179467
  0.7725107052670813  0.2500004676989290  0.3268859989016182
  0.4803275758902377  0.7500000026101515  0.0802951460482690
 
  0.00000000E+00  0.00000000E+00  0.00000000E+00
  0.00000000E+00  0.00000000E+00  0.00000000E+00
  0.00000000E+00  0.00000000E+00  0.00000000E+00
  0.00000000E+00  0.00000000E+00  0.00000000E+00
  0.00000000E+00  0.00000000E+00  0.00000000E+00
  0.00000000E+00  0.00000000E+00  0.00000000E+00
  0.00000000E+00  0.00000000E+00  0.00000000E+00
  0.00000000E+00  0.00000000E+00  0.00000000E+00
  0.00000000E+00  0.00000000E+00  0.00000000E+00
  0.00000000E+00  0.00000000E+00  0.00000000E+00
  0.00000000E+00  0.00000000E+00  0.00000000E+00
  0.00000000E+00  0.00000000E+00  0.00000000E+00
  0.00000000E+00  0.00000000E+00  0.00000000E+00
  0.00000000E+00  0.00000000E+00  0.00000000E+00
  0.00000000E+00  0.00000000E+00  0.00000000E+00
  0.00000000E+00  0.00000000E+00  0.00000000E+00
  0.00000000E+00  0.00000000E+00  0.00000000E+00
  0.00000000E+00  0.00000000E+00  0.00000000E+00
  0.00000000E+00  0.00000000E+00  0.00000000E+00
  0.00000000E+00  0.00000000E+00  0.00000000E+00
  0.00000000E+00  0.00000000E+00  0.00000000E+00
  0.00000000E+00  0.00000000E+00  0.00000000E+00
  0.00000000E+00  0.00000000E+00  0.00000000E+00
  0.00000000E+00  0.00000000E+00  0.00000000E+00
  0.00000000E+00  0.00000000E+00  0.00000000E+00
  0.00000000E+00  0.00000000E+00  0.00000000E+00
  0.00000000E+00  0.00000000E+00  0.00000000E+00
  0.00000000E+00  0.00000000E+00  0.00000000E+00
  0.00000000E+00  0.00000000E+00  0.00000000E+00
  0.00000000E+00  0.00000000E+00  0.00000000E+00
  0.00000000E+00  0.00000000E+00  0.00000000E+00
  0.00000000E+00  0.00000000E+00  0.00000000E+00
  0.00000000E+00  0.00000000E+00  0.00000000E+00
  0.00000000E+00  0.00000000E+00  0.00000000E+00
  0.00000000E+00  0.00000000E+00  0.00000000E+00
  0.00000000E+00  0.00000000E+00  0.00000000E+00
  0.00000000E+00  0.00000000E+00  0.00000000E+00
  0.00000000E+00  0.00000000E+00  0.00000000E+00
  0.00000000E+00  0.00000000E+00  0.00000000E+00
  0.00000000E+00  0.00000000E+00  0.00000000E+00
  0.00000000E+00  0.00000000E+00  0.00000000E+00
  0.00000000E+00  0.00000000E+00  0.00000000E+00
  0.00000000E+00  0.00000000E+00  0.00000000E+00
  0.00000000E+00  0.00000000E+00  0.00000000E+00
  0.00000000E+00  0.00000000E+00  0.00000000E+00
  0.00000000E+00  0.00000000E+00  0.00000000E+00
  0.00000000E+00  0.00000000E+00  0.00000000E+00
  0.00000000E+00  0.00000000E+00  0.00000000E+00
  0.00000000E+00  0.00000000E+00  0.00000000E+00
  0.00000000E+00  0.00000000E+00  0.00000000E+00
  0.00000000E+00  0.00000000E+00  0.00000000E+00
  0.00000000E+00  0.00000000E+00  0.00000000E+00
  0.00000000E+00  0.00000000E+00  0.00000000E+00
  0.00000000E+00  0.00000000E+00  0.00000000E+00
  0.00000000E+00  0.00000000E+00  0.00000000E+00
  0.00000000E+00  0.00000000E+00  0.00000000E+00
  0.00000000E+00  0.00000000E+00  0.00000000E+00
  0.00000000E+00  0.00000000E+00  0.00000000E+00
  0.00000000E+00  0.00000000E+00  0.00000000E+00
