59
Time=0.00000000 pbc="T T T" Lattice="9.96362656 -0.00002384 0.01898694 -0.00003982 6.71047755 0.00050987 0.01647431 0.00040709 8.75636021" energy=-501.28741236 virial="0.01961229 0.00097258 -0.02620056 0.00097258 -0.23373434 -0.00841164 -0.02620056 -0.00841164 0.14377813" stress="0.00277330 -0.00043444 0.00027011 -0.00043444 0.00198703 0.00035747 0.00027011 0.00035747 0.00293534" Properties=species:S:1:pos:R:3
C 5.64762200 5.09616771 6.81513906
C 4.40383589 1.74027930 6.32491085
C 8.12936689 5.09577518 8.46179661
C 6.88840411 1.74050339 4.59884790
C 5.64328987 5.09572148 2.48533138
C 3.12597543 5.09539539 4.05891245
C 0.64280114 5.09618879 6.80820228
C 9.38617913 1.74020610 6.35653918
C 3.14112145 5.09578658 8.44667281
C 1.91050862 1.74057198 4.58755594
C 0.60819173 5.09568425 2.51905203
Fe 0.91427534 0.54688985 1.40740745
Fe 1.64971114 6.34170982 3.62658533
Fe 3.41097816 2.93488216 0.76022883
Fe 9.12969349 3.85711535 7.29497234
Fe 9.12951675 6.33483568 7.29517139
Fe 3.41094933 0.54589200 0.76018388
Fe 1.64957505 3.84936317 3.62645001
Fe 0.91408732 2.93362807 1.40749901
Fe 0.92051308 0.52639283 5.81294697
Fe 1.65814075 6.31559882 8.00585532
Fe 3.41434622 2.95003315 5.09853342
Fe 9.07751513 3.87045742 2.95101456
Fe 9.07742354 6.32073286 2.95117944
Fe 3.41426617 0.53098657 5.09828870
Fe 1.65798113 3.87622765 8.00556429
Fe 0.92034619 2.95433486 5.81311855
Fe 5.91691546 0.54987935 1.38930319
Fe 6.64438529 6.34981599 3.63368220
Fe 8.40003189 2.93223889 0.77290462
Fe 4.15584357 3.85913785 7.28785309
Fe 4.15563513 6.33279869 7.28801447
Fe 8.39997927 0.54857036 0.77288838
Fe 6.64428147 3.84137925 3.63353934
Fe 5.91677040 2.93059751 1.38935688
Fe 5.90504922 0.52746927 5.82069241
Fe 6.65949903 6.31170969 7.99387062
Fe 8.38810549 2.94141329 5.12285219
Fe 4.15552765 3.87073386 2.90341971
Fe 4.15538409 6.32046458 2.90364393
Fe 8.38803437 0.53947379 5.12256199
Fe 6.65937681 3.88008633 7.99353687
Fe 5.90492836 2.95325893 5.82081735
Fe 0.21889609 1.74027484 3.55727453
Fe 2.35583144 5.09565625 5.84845596
Fe 2.71572562 1.74073535 7.35971673
Fe 9.77510417 5.09571537 5.03973634
Fe 0.28973229 1.74060410 8.10261911
Fe 2.30711515 5.09545863 1.48001143
Fe 2.77368611 1.74044476 2.81513752
Fe 9.79512896 5.09563994 0.72819781
Fe 5.20609287 1.74029700 3.55466824
Fe 7.33794100 5.09564765 5.75646308
Fe 7.69620685 1.74070716 7.38524518
Fe 4.84056561 5.09572729 5.04829152
Fe 5.26523536 1.74058462 8.10003867
Fe 7.31759466 5.09545945 1.49331272
Fe 7.75307437 1.74048217 2.82735301
Fe 4.81916772 5.09564102 0.69810189
59
Time=0.00000000 pbc="T T T" Lattice="9.96363186 -0.00002357 0.01898055 -0.00003943 6.71043276 0.00050772 0.01646701 0.00040541 8.75639528" energy=-501.28740891 virial="0.01958894 0.00095113 -0.02592601 0.00095113 -0.23082580 -0.00839571 -0.02592601 -0.00839571 0.14194554" stress="0.00251871 0.00001377 0.00012920 0.00001377 0.00203217 -0.00007445 0.00012920 -0.00007445 0.00314661" Properties=species:S:1:pos:R:3
C 5.64762180 5.09615462 6.81514698
C 4.40383504 1.74029228 6.32492376
C 8.12936685 5.09576425 8.46181295
C 6.88840528 1.74051530 4.59884480
C 5.64329372 5.09571095 2.48531535
C 3.12597854 5.09538602 4.05891885
C 0.64279831 5.09617582 6.80820681
C 9.38618020 1.74021940 6.35654571
C 3.14111854 5.09577547 8.44669226
C 1.91050685 1.74058335 4.58755514
C 0.60819528 5.09567359 2.51903650
Fe 0.91427307 0.54690817 1.40740363
Fe 1.64970948 6.34169297 3.62658601
Fe 3.41097834 2.93488775 0.76020853
Fe 9.12969100 3.85710906 7.29497592
Fe 9.12951533 6.33481748 7.29517452
Fe 3.41094934 0.54591063 0.76016382
Fe 1.64957377 3.84935976 3.62645122
Fe 0.91408627 2.93363478 1.40749479
Fe 0.92051237 0.52641032 5.81295860
Fe 1.65813272 6.31558103 8.00587312
Fe 3.41434885 2.95003936 5.09853218
Fe 9.07751916 3.87045350 2.95099604
Fe 9.07742782 6.32071648 2.95116024
Fe 3.41426904 0.53100371 5.09828893
Fe 1.65797374 3.87622160 8.00558366
Fe 0.92034654 2.95434220 5.81312946
Fe 5.91691620 0.54989678 1.38930055
Fe 6.64438629 6.34979603 3.63368282
Fe 8.40003440 2.93224387 0.77287972
Fe 4.15583883 3.85913070 7.28786163
Fe 4.15563157 6.33278144 7.28802241
Fe 8.39998186 0.54858957 0.77286310
Fe 6.64428276 3.84137866 3.63354019
Fe 5.91677199 2.93060530 1.38935393
Fe 5.90505277 0.52748754 5.82070293
Fe 6.65949308 6.31169293 7.99388986
Fe 8.38811143 2.94142077 5.12284537
Fe 4.15552613 3.87073025 2.90341032
Fe 4.15538302 6.32044774 2.90363350
Fe 8.38804045 0.53949088 5.12255653
Fe 6.65937144 3.88007952 7.99355776
Fe 5.90493254 2.95326580 5.82082755
Fe 0.21889307 1.74028778 3.55727911
Fe 2.35583089 5.09564574 5.84846498
Fe 2.71572152 1.74074605 7.35972168
Fe 9.77510414 5.09570487 5.03973135
Fe 0.28972518 1.74061528 8.10263978
Fe 2.30711752 5.09544877 1.47999882
Fe 2.77368326 1.74045655 2.81512895
Fe 9.79513587 5.09562955 0.72817490
Fe 5.20609307 1.74030964 3.55467193
Fe 7.33794178 5.09563722 5.75647692
Fe 7.69620614 1.74071800 7.38524511
Fe 4.84056875 5.09571667 5.04829358
Fe 5.26523270 1.74059555 8.10005921
Fe 7.31760022 5.09544975 1.49330006
Fe 7.75307372 1.74049421 2.82734204
Fe 4.81917095 5.09563033 0.69808459
