60
Lattice="10.041967234863701 5.45207004e-08 0.0089715410114436 -1.06715128e-07 6.793985865112289 -5.6273984418e-06 0.0078024713671557 -7.5125520389e-06 8.778318252951447" Properties=species:S:1:pos:R:3:momenta:R:3 pbc="T T T"
C        5.64938594       5.09548281       6.84907059       0.00000000       0.00000000       0.00000000
C        4.38527863       1.69849047       6.37909390       0.00000000       0.00000000       0.00000000
C        8.14929727       5.09547920       8.50680666       0.00000000       0.00000000       0.00000000
C        6.88087625       1.69848800       4.61678082       0.00000000       0.00000000       0.00000000
C        5.62332582       5.09548883       2.50219217       0.00000000       0.00000000       0.00000000
C        9.44607961       1.69851403       1.85699177       0.00000000       0.00000000       0.00000000
C        3.11257978       5.09548417       4.09214389       0.00000000       0.00000000       0.00000000
C        0.61286909       5.09547711       6.83006802       0.00000000       0.00000000       0.00000000
C        9.40372328       1.69850242       6.38126612       0.00000000       0.00000000       0.00000000
C        3.11455615       5.09549923       8.48568410       0.00000000       0.00000000       0.00000000
C        1.88826537       1.69849537       4.64927885       0.00000000       0.00000000       0.00000000
C        0.57638769       5.09547305       2.55811961       0.00000000       0.00000000       0.00000000
Fe       0.92507035       0.46609660       1.40736041       0.00000000       0.00000000       0.00000000
Fe       1.63127542       6.35487801       3.64649456       0.00000000       0.00000000       0.00000000
Fe       3.42238747       2.89590615       0.83912356       0.00000000       0.00000000       0.00000000
Fe       9.16333051       3.85852308       7.31685042       0.00000000       0.00000000       0.00000000
Fe       9.16333399       6.33244068       7.31685873       0.00000000       0.00000000       0.00000000
Fe       3.42238817       0.50106722       0.83912432       0.00000000       0.00000000       0.00000000
Fe       1.63127953       3.83608837       3.64650483       0.00000000       0.00000000       0.00000000
Fe       0.92507829       2.93090952       1.40737003       0.00000000       0.00000000       0.00000000
Fe       0.88117526       0.46763591       5.85452375       0.00000000       0.00000000       0.00000000
Fe       1.63503295       6.31648032       8.03448650       0.00000000       0.00000000       0.00000000
Fe       3.39043576       2.91856269       5.15318951       0.00000000       0.00000000       0.00000000
Fe       9.11110789       3.85791102       2.98023840       0.00000000       0.00000000       0.00000000
Fe       9.11111207       6.33304583       2.98025153       0.00000000       0.00000000       0.00000000
Fe       3.39043131       0.47842013       5.15319267       0.00000000       0.00000000       0.00000000
Fe       1.63503942       3.87449325       8.03449450       0.00000000       0.00000000       0.00000000
Fe       0.88118168       2.92935171       5.85452879       0.00000000       0.00000000       0.00000000
Fe       5.93450365       0.49034897       1.37037293       0.00000000       0.00000000       0.00000000
Fe       6.63098922       6.35978023       3.64586694       0.00000000       0.00000000       0.00000000
Fe       8.42236708       2.96728908       0.74245414       0.00000000       0.00000000       0.00000000
Fe       4.13694202       3.84366580       7.34399241       0.00000000       0.00000000       0.00000000
Fe       4.13694731       6.34730515       7.34398749       0.00000000       0.00000000       0.00000000
Fe       8.42236729       0.42971129       0.74246967       0.00000000       0.00000000       0.00000000
Fe       6.63098835       3.83119383       3.64586658       0.00000000       0.00000000       0.00000000
Fe       5.93450743       2.90663354       1.37036429       0.00000000       0.00000000       0.00000000
Fe       5.89355703       0.47932382       5.83757927       0.00000000       0.00000000       0.00000000
Fe       6.67018248       6.31320412       8.00086164       0.00000000       0.00000000       0.00000000
Fe       8.39493648       2.91120814       5.15456666       0.00000000       0.00000000       0.00000000
Fe       4.14710828       3.87061784       2.95329871       0.00000000       0.00000000       0.00000000
Fe       4.14710740       6.32035364       2.95330206       0.00000000       0.00000000       0.00000000
Fe       8.39493928       0.48577513       5.15457869       0.00000000       0.00000000       0.00000000
Fe       6.67017928       3.87776215       8.00086292       0.00000000       0.00000000       0.00000000
Fe       5.89355646       2.91765834       5.83757570       0.00000000       0.00000000       0.00000000
Fe       0.18168483       1.69849079       3.65065658       0.00000000       0.00000000       0.00000000
Fe       2.33088553       5.09548624       5.87681184       0.00000000       0.00000000       0.00000000
Fe       2.70158786       1.69849196       7.44878915       0.00000000       0.00000000       0.00000000
Fe       9.81239602       5.09548295       5.04137431       0.00000000       0.00000000       0.00000000
Fe       0.23705604       1.69849388       8.13724110       0.00000000       0.00000000       0.00000000
Fe       2.30363433       5.09548695       1.48900835       0.00000000       0.00000000       0.00000000
Fe       2.73399975       1.69849113       2.88529092       0.00000000       0.00000000       0.00000000
Fe       9.85293852       5.09549218       0.75652422       0.00000000       0.00000000       0.00000000
Fe       5.18247853       1.69849371       3.52899221       0.00000000       0.00000000       0.00000000
Fe       7.34701162       5.09548406       5.76612432       0.00000000       0.00000000       0.00000000
Fe       7.71801444       1.69848947       7.41128143       0.00000000       0.00000000       0.00000000
Fe       4.82081590       5.09548439       5.10495213       0.00000000       0.00000000       0.00000000
Fe       5.27964215       1.69848967       8.12487337       0.00000000       0.00000000       0.00000000
Fe       7.32644604       5.09548814       1.51344609       0.00000000       0.00000000       0.00000000
Fe       7.73850963       1.69849067       2.86816665       0.00000000       0.00000000       0.00000000
Fe       4.82425775       5.09548331       0.71717107       0.00000000       0.00000000       0.00000000
