 C Fe                                   
   1.00000000000000     
    10.0419672348637015    0.0000000545207004    0.0089715410114436
    -0.0000001067151280    6.7939858651122886   -0.0000056273984418
     0.0078024713671557   -0.0000075125520389    8.7783182529514470
   C    Fe
    12    48
Direct
  0.5619718402002180  0.7499998881670968  0.7796519631905279
  0.4361308971822350  0.2499999176308749  0.7262419015753362
  0.8107716822587893  0.7499995625321952  0.9682420668542965
  0.6848038858571442  0.2499993287192795  0.5252302722238478
  0.5597614689292665  0.7500002258010997  0.2844707149648350
  0.9404966533386073  0.2500028106463646  0.2105819606436453
  0.3095952230481449  0.7499997425169903  0.4658489751160576
  0.0604262926022841  0.7499990514189597  0.7779998314656873
  0.9358782658269480  0.2500016717103307  0.7259786067928408
  0.3094031525826129  0.7500025131166961  0.9663482520197701
  0.1876260309930681  0.2500004224069909  0.5294404726986425
  0.0571715151813984  0.7499979156753755  0.2913554559336819
  0.0919959367932571  0.0686044696674214  0.1602283502979344
  0.1621231814627916  0.9353686114407820  0.4152327617096949
  0.3407344703193999  0.4262456387135006  0.0952425081974362
  0.9118566265735795  0.5679330748444690  0.8325823516367593
  0.9118569765356309  0.9320665374685762  0.8325835312758056
  0.3407345366593449  0.0737516871770884  0.0952423685927166
  0.1621235862320426  0.5646304775203687  0.4152336932243453
  0.0919967300583462  0.4313978240424112  0.1602296780712862
  0.0872311410051750  0.0688315999766648  0.6668408880251896
  0.1621089741954139  0.9297174463822427  0.9150998101033883
  0.3371708036384177  0.4295809759735263  0.5866917599048630
  0.9070400280548681  0.5678424402293722  0.3385732854723589
  0.9070404465772979  0.9321550635706487  0.3385750141928190
  0.3371703561663890  0.0704188268801697  0.5866918904392090
  0.1621096140396545  0.5702838051397143  0.9151004906677916
  0.0872317833095138  0.4311690913420031  0.6668416939698517
  0.5908494019180524  0.0721741432519582  0.1555050142278706
  0.6600055403476291  0.9360901591046775  0.4146524242368331
  0.8386517992734115  0.4367524048188582  0.0837213432943996
  0.4113155989159479  0.5657462545790332  0.8361858441574759
  0.4113161295450737  0.9342544329760575  0.8361855192309684
  0.8386518156514225  0.0632488615698331  0.0837228737798606
  0.6600054498029541  0.5639100498733418  0.4146521447221921
  0.5908497826449316  0.4278246573208673  0.1555042578428706
  0.5863764474504951  0.0705519240675731  0.6644004915842497
  0.6635230199592212  0.9292352162770113  0.9107569142971642
  0.8355296761990861  0.4284984633183064  0.5863393113518266
  0.4127166060015205  0.5697127462431600  0.3360096005600578
  0.4127165217046436  0.9302869136057536  0.3360102132319458
  0.8355299503666727  0.0715013983016558  0.5863404532198726
  0.6635226978543961  0.5707649430828334  0.9107568301540258
  0.5863763946950939  0.4294479490010331  0.6644003155728151
  0.0177694430257042  0.2499996248604715  0.4158539784495049
  0.2315944564995227  0.7500002734076040  0.6692327764651984
  0.2683706506393044  0.2500002721919846  0.8482698671087999
  0.9766933817310254  0.7499996764984361  0.5733007103914386
  0.0228863110523249  0.2500006445993633  0.9269471605532839
  0.2292690961334378  0.7499998257402209  0.1693895830285325
  0.2720022220430555  0.2499995755605487  0.3284059621574397
  0.9811099520208723  0.7500004963659314  0.0851787725090629
  0.5157700534453646  0.2500000346030732  0.4014853714350104
  0.7311209272476102  0.7499999333792957  0.6561130612020529
  0.7679205679479337  0.2499998968575167  0.8434865534196340
  0.4796154208113744  0.7499999006769946  0.5810513260696484
  0.5250390257452225  0.2500000183676208  0.9250250602998651
  0.7294493761247061  0.7499999980424237  0.1716622680284035
  0.7703636440774680  0.2499995007643761  0.3259458845062617
  0.4803465395026701  0.7499991899809717  0.0812075636507841
 
  0.00000000E+00  0.00000000E+00  0.00000000E+00
  0.00000000E+00  0.00000000E+00  0.00000000E+00
  0.00000000E+00  0.00000000E+00  0.00000000E+00
  0.00000000E+00  0.00000000E+00  0.00000000E+00
  0.00000000E+00  0.00000000E+00  0.00000000E+00
  0.00000000E+00  0.00000000E+00  0.00000000E+00
  0.00000000E+00  0.00000000E+00  0.00000000E+00
  0.00000000E+00  0.00000000E+00  0.00000000E+00
  0.00000000E+00  0.00000000E+00  0.00000000E+00
  0.00000000E+00  0.00000000E+00  0.00000000E+00
  0.00000000E+00  0.00000000E+00  0.00000000E+00
  0.00000000E+00  0.00000000E+00  0.00000000E+00
  0.00000000E+00  0.00000000E+00  0.00000000E+00
  0.00000000E+00  0.00000000E+00  0.00000000E+00
  0.00000000E+00  0.00000000E+00  0.00000000E+00
  0.00000000E+00  0.00000000E+00  0.00000000E+00
  0.00000000E+00  0.00000000E+00  0.00000000E+00
  0.00000000E+00  0.00000000E+00  0.00000000E+00
  0.00000000E+00  0.00000000E+00  0.00000000E+00
  0.00000000E+00  0.00000000E+00  0.00000000E+00
  0.00000000E+00  0.00000000E+00  0.00000000E+00
  0.00000000E+00  0.00000000E+00  0.00000000E+00
  0.00000000E+00  0.00000000E+00  0.00000000E+00
  0.00000000E+00  0.00000000E+00  0.00000000E+00
  0.00000000E+00  0.00000000E+00  0.00000000E+00
  0.00000000E+00  0.00000000E+00  0.00000000E+00
  0.00000000E+00  0.00000000E+00  0.00000000E+00
  0.00000000E+00  0.00000000E+00  0.00000000E+00
  0.00000000E+00  0.00000000E+00  0.00000000E+00
  0.00000000E+00  0.00000000E+00  0.00000000E+00
  0.00000000E+00  0.00000000E+00  0.00000000E+00
  0.00000000E+00  0.00000000E+00  0.00000000E+00
  0.00000000E+00  0.00000000E+00  0.00000000E+00
  0.00000000E+00  0.00000000E+00  0.00000000E+00
  0.00000000E+00  0.00000000E+00  0.00000000E+00
  0.00000000E+00  0.00000000E+00  0.00000000E+00
  0.00000000E+00  0.00000000E+00  0.00000000E+00
  0.00000000E+00  0.00000000E+00  0.00000000E+00
  0.00000000E+00  0.00000000E+00  0.00000000E+00
  0.00000000E+00  0.00000000E+00  0.00000000E+00
  0.00000000E+00  0.00000000E+00  0.00000000E+00
  0.00000000E+00  0.00000000E+00  0.00000000E+00
  0.00000000E+00  0.00000000E+00  0.00000000E+00
  0.00000000E+00  0.00000000E+00  0.00000000E+00
  0.00000000E+00  0.00000000E+00  0.00000000E+00
  0.00000000E+00  0.00000000E+00  0.00000000E+00
  0.00000000E+00  0.00000000E+00  0.00000000E+00
  0.00000000E+00  0.00000000E+00  0.00000000E+00
  0.00000000E+00  0.00000000E+00  0.00000000E+00
  0.00000000E+00  0.00000000E+00  0.00000000E+00
  0.00000000E+00  0.00000000E+00  0.00000000E+00
  0.00000000E+00  0.00000000E+00  0.00000000E+00
  0.00000000E+00  0.00000000E+00  0.00000000E+00
  0.00000000E+00  0.00000000E+00  0.00000000E+00
  0.00000000E+00  0.00000000E+00  0.00000000E+00
  0.00000000E+00  0.00000000E+00  0.00000000E+00
  0.00000000E+00  0.00000000E+00  0.00000000E+00
  0.00000000E+00  0.00000000E+00  0.00000000E+00
  0.00000000E+00  0.00000000E+00  0.00000000E+00
  0.00000000E+00  0.00000000E+00  0.00000000E+00
