60
Time=0.00000000 pbc="T T T" Lattice="9.98768980 -0.00000435 0.02391873 -0.00000631 6.71203311 0.00004550 0.02496578 0.00003210 8.78686942" energy=-510.94232875 virial="0.01860420 0.00038097 -0.01546460 0.00038097 -0.13334911 -0.00026255 -0.01546460 -0.00026255 0.08619369" stress="0.00241284 0.00041338 -0.00034671 0.00041338 0.00262031 0.00033437 -0.00034671 0.00033437 0.00281820" Properties=species:S:1:pos:R:3
C 5.64105753 5.07571820 6.84255886
C 4.40200804 1.71964385 6.36282796
C 8.13722407 5.07569565 8.51139034
C 6.88760359 1.71966517 4.64687590
C 5.63768528 5.07569174 2.50326072
C 9.40694562 1.71961162 1.86932746
C 3.12246857 5.07566812 4.09119578
C 0.63461196 5.07572868 6.83739651
C 9.39759490 1.71963530 6.38212580
C 3.13749061 5.07569045 8.48692528
C 1.91708939 1.71966573 4.63749935
C 0.60319440 5.07570522 2.52295740
Fe 0.93233114 0.49137752 1.44444788
Fe 1.64333050 6.31446974 3.65768695
Fe 3.40937449 2.91222215 0.77494914
Fe 9.13581978 3.84475612 7.32046127
Fe 9.13580239 6.30665588 7.32047007
Fe 3.40937946 0.52709285 0.77494415
Fe 1.64331632 3.83689185 3.65766462
Fe 0.93230812 2.94789916 1.44445484
Fe 0.91533058 0.50242711 5.85721564
Fe 1.64930797 6.29422202 8.04643444
Fe 3.41261547 2.93168277 5.13630541
Fe 9.08292798 3.84617572 2.95702424
Fe 9.08291996 6.30521075 2.95701877
Fe 3.41261446 0.50764565 5.13628265
Fe 1.64929294 3.85717900 8.04640657
Fe 0.91531269 2.93688008 5.85722396
Fe 5.91397382 0.52804724 1.40893703
Fe 6.63971634 6.32352726 3.66165372
Fe 8.37257840 2.95990474 0.73259873
Fe 4.15064751 3.83989124 7.32812167
Fe 4.15062916 6.31151595 7.32813350
Fe 8.37256234 0.47937737 0.73257287
Fe 6.63969981 3.82782082 3.66163884
Fe 5.91394812 2.91122924 1.40893748
Fe 5.90024876 0.50453047 5.85562192
Fe 6.65277688 6.28613102 8.02603731
Fe 8.39010705 2.92276312 5.15614225
Fe 4.15031658 3.85065726 2.92928975
Fe 4.15030504 6.30070222 2.92930547
Fe 8.39010251 0.51655645 5.15611194
Fe 6.65277749 3.86526220 8.02601230
Fe 5.90023606 2.93477530 5.85563433
Fe 0.20747654 1.71966184 3.65663993
Fe 2.34916768 5.07567387 5.88199437
Fe 2.71121639 1.71968697 7.39889597
Fe 9.78359113 5.07568523 5.06109431
Fe 0.27533230 1.71967466 8.13195164
Fe 2.31417588 5.07565888 1.49503304
Fe 2.76973532 1.71967006 2.85320654
Fe 9.81203836 5.07566505 0.72967100
Fe 5.20098321 1.71965165 3.59249358
Fe 7.33616606 5.07567378 5.78569462
Fe 7.70046091 1.71968471 7.41035021
Fe 4.83464055 5.07568181 5.08068440
Fe 5.26929094 1.71967150 8.13830212
Fe 7.31292743 5.07564901 1.51506831
Fe 7.69893347 1.71967256 2.86509651
Fe 4.81110272 5.07567417 0.71453525
60
Time=0.00000000 pbc="T T T" Lattice="9.98769106 -0.00000433 0.02391782 -0.00000628 6.71202707 0.00004549 0.02496474 0.00003209 8.78687448" energy=-510.94232259 virial="0.01859791 0.00037418 -0.01543164 0.00037418 -0.13298572 -0.00025758 -0.01543164 -0.00025758 0.08589653" stress="0.00252307 -0.00011223 -0.00093499 -0.00011223 0.00226868 0.00038052 -0.00093499 0.00038052 0.00305970" Properties=species:S:1:pos:R:3
C 5.64105750 5.07571689 6.84256026
C 4.40200798 1.71964566 6.36282963
C 8.13722417 5.07569417 8.51139281
C 6.88760338 1.71966669 4.64687555
C 5.63768573 5.07569039 2.50325820
C 9.40694566 1.71961366 1.86932723
C 3.12246928 5.07566653 4.09119655
C 0.63461130 5.07572701 6.83739707
C 9.39759534 1.71963692 6.38212647
C 3.13749056 5.07568888 8.48692814
C 1.91708902 1.71966738 4.63749879
C 0.60319435 5.07570367 2.52295538
Fe 0.93233037 0.49138007 1.44444720
Fe 1.64333031 6.31446729 3.65768718
Fe 3.40937452 2.91222287 0.77494617
Fe 9.13581985 3.84475541 7.32046167
Fe 9.13580266 6.30665339 7.32047067
Fe 3.40937959 0.52709527 0.77494111
Fe 1.64331615 3.83689106 3.65766468
Fe 0.93230768 2.94789970 1.44445403
Fe 0.91533007 0.50242954 5.85721702
Fe 1.64930692 6.29421971 8.04643714
Fe 3.41261579 2.93168366 5.13630522
Fe 9.08292878 3.84617479 2.95702141
Fe 9.08292082 6.30520838 2.95701633
Fe 3.41261476 0.50764810 5.13628247
Fe 1.64929174 3.85717846 8.04640898
Fe 0.91531249 2.93688091 5.85722561
Fe 5.91397375 0.52804934 1.40893631
Fe 6.63971637 6.32352458 3.66165377
Fe 8.37257895 2.95990522 0.73259538
Fe 4.15064720 3.83989042 7.32812273
Fe 4.15062863 6.31151391 7.32813463
Fe 8.37256293 0.47938058 0.73256972
Fe 6.63970001 3.82782086 3.66163899
Fe 5.91394826 2.91123047 1.40893682
Fe 5.90024904 0.50453281 5.85562338
Fe 6.65277613 6.28612891 8.02604043
Fe 8.39010775 2.92276405 5.15614172
Fe 4.15031645 3.85065623 2.92928832
Fe 4.15030501 6.30069990 2.92930414
Fe 8.39010335 0.51655853 5.15611142
Fe 6.65277651 3.86526100 8.02601532
Fe 5.90023639 2.93477634 5.85563581
Fe 0.20747580 1.71966306 3.65664056
Fe 2.34916749 5.07567263 5.88199575
Fe 2.71121574 1.71968854 7.39889660
Fe 9.78359143 5.07568367 5.06109382
Fe 0.27533178 1.71967619 8.13195391
Fe 2.31417610 5.07565757 1.49503143
Fe 2.76973509 1.71967150 2.85320511
Fe 9.81203984 5.07566350 0.72966815
Fe 5.20098316 1.71965330 3.59249436
Fe 7.33616622 5.07567229 5.78569664
Fe 7.70046088 1.71968632 7.41035037
Fe 4.83464073 5.07568040 5.08068469
Fe 5.26929055 1.71967312 8.13830482
Fe 7.31292832 5.07564748 1.51506664
Fe 7.69893308 1.71967395 2.86509514
Fe 4.81110320 5.07567261 0.71453302
