40
Lattice="8.887555173 0.250044483 0.035446594 0.320145369 8.625735962 -0.237587523 0.000050952 -0.004212265 5.517727256" Properties=species:S:1:pos:R:3:forces:R:3 stress="-0.0062454037761232 0.0081652982089364 0.0050890019408434 0.0081652982089364 -0.0164663929308059 -0.0153671945261935 0.0050890019408434 -0.0153671945261935 -0.0100877454189611" energy=-337.0969900000 pbc="T T T" step=200
C        2.29782000      2.15419000      3.95516000      1.08795400      0.17224800      0.67882500
C        0.20994000      4.17445000      2.65345000     -2.66256200      2.38018100     -0.55971500
C        2.08801000      6.53222000      4.03656000      0.77323100      0.40405600      0.73954800
C        6.78908000      2.22386000      4.16931000      1.49020300     -0.30863400      0.81253400
C        4.35968000      4.37009000      5.39715000      2.18656100      0.23156400      0.45085500
C        6.80302000      6.56053000      1.36605000     -0.51961200      0.93059900     -1.43127900
C        4.55610000      4.36572000      2.65064000     -0.93980100     -0.63723000      0.61179500
C        6.75021000      6.62311000      4.04064000      0.01632200      0.31877900      0.78088200
Fe       3.13382000      1.07037000      0.13706000      0.59745800      0.30948200     -0.63572400
Fe       5.81643000      7.64948000     -0.15233000      0.81794300     -0.41535400      0.58019900
Fe       5.45661000      1.00507000      1.46073000      0.45645300      1.53799900     -0.59346400
Fe       8.08916000      3.41023000      1.28859000      0.21035900     -0.30852200      0.41101900
Fe       3.38285000      1.07059000      2.78605000     -0.62822700      0.15087300     -0.06976800
Fe       5.92324000      7.74719000      2.65595000      0.79925400     -1.16911200     -0.09148100
Fe       5.35844000      1.03389000      4.12397000      0.09269400      0.73504500      1.05304400
Fe       8.37502000      3.43999000      4.15862000     -1.34929300     -0.84400000      0.28444500
Fe       2.99107000      5.49278000     -0.02621000     -1.13124600      1.52097700     -0.27511000
Fe       5.98836000      3.33023000     -0.03130000      0.08507300     -0.23877800      0.42614300
Fe       5.20774000      5.45893000      1.38526000      0.36932600      0.18972200     -2.01286300
Fe       8.27921000      7.85786000      1.17261000     -0.53747700     -0.69049700      1.10206700
Fe       2.94320000      5.58487000      2.71653000      0.78291800     -1.58952000     -1.26799200
Fe       6.15622000      3.28249000      2.80319000     -0.85635100      0.29154100     -1.22695900
Fe       5.09055000      5.56068000      3.97535000      0.91128600     -0.29264600      1.30467100
Fe       8.53065000      7.68698000      4.13550000     -1.43531100      0.16548900     -0.98756900
Fe       7.78408000      1.25587000      0.21521000     -0.61651700      0.27423500     -1.95253900
Fe       1.46781000      7.55818000     -0.02911000      0.73050600      0.15823900     -0.07588500
Fe       1.03743000      0.95306000      1.45271000      0.24196500      0.58257500     -0.47573900
Fe       3.57129000      3.41664000      1.30254000      0.41897000     -0.95204000      0.54263900
Fe       7.84132000      1.24323000      2.78624000     -0.34378900     -0.24434100      0.94321000
Fe       1.69869000      7.60963000      2.51825000     -1.26441300      0.21213100      0.17776200
Fe       0.98388000      0.93422000      4.19835000     -0.54668200     -0.54850900      0.03224000
Fe       3.85249000      3.24225000      4.02220000     -0.56831800     -0.02158600     -0.27247100
Fe       7.73596000      5.62671000     -0.06715000     -2.21156900      0.13349900     -0.25490400
Fe       1.56642000      3.21079000      5.38650000     -0.15852500     -0.64980400     -0.02783700
Fe       0.79316000      5.13354000      1.02379000      0.77242600      0.88621700      2.07612700
Fe       3.85280000      7.65901000      1.37036000     -1.03427500     -0.56930100     -1.14493400
Fe       7.36585000      5.53853000      2.73379000      1.78578300     -0.94304500      0.10272500
Fe       1.46372000      3.02014000      2.49061000      2.57113300     -1.58989000      0.40541400
Fe       0.85247000      5.17907000      4.11980000     -0.23232600      0.31873800     -0.74949500
Fe       3.72662000      7.66565000      4.01469000     -0.21152500      0.15685400      0.64837800
40
Lattice="8.957070441 0.092770572 -0.311011279 0.330126596 8.894346725 0.066489584 0.000051647 -0.004269680 5.592937004" Properties=species:S:1:pos:R:3:forces:R:3 stress="0.0335705869494037 -0.0048684394931701 -0.0134843060006828 -0.0048684394931701 0.0601048523342776 0.0021096612747131 -0.0134843060006828 0.0021096612747131 0.0379823164990684" energy=-335.5900230000 pbc="T T T" step=400
C        2.57104000      2.26588000      4.16586000     -0.45135400      0.18444700      0.88612600
C        0.29551000      4.62605000      3.01985000      0.89553800     -1.26594900      0.39274400
C        2.21728000      6.95882000      4.30924000      0.59407200     -1.00340500      0.09280600
C        7.04748000      2.24734000      4.02872000      0.59528800     -0.20517500      0.38239900
C        4.73801000      4.30066000     -0.03093000      0.09190200      0.83643600      0.46072600
C        6.74826000      6.60170000      1.26232000      0.70556000      1.03396600      1.80519700
C        4.63070000      4.23758000      2.76001000      0.14060400      1.79006200     -1.47468000
C        6.77373000      6.73542000      4.27993000     -0.10764200      0.30618200     -2.24469400
Fe       3.58957000      1.00233000     -0.08734000     -1.34424200      1.48688300     -0.05675700
Fe       5.75774000      7.71980000      0.01543000      1.05665900      0.22079700     -0.23608900
Fe       5.47849000      1.10445000      1.38326000      0.74798600     -0.35653800     -0.18485400
Fe       8.52797000      3.32835000      1.46191000     -0.23261600      0.27197200     -0.88403300
Fe       3.40705000      1.24671000      2.79284000     -0.06599500     -0.95854900     -0.38044000
Fe       5.90749000      7.62010000      2.77986000      0.65705400      0.77542800     -0.27230800
Fe       5.60714000      1.05316000      4.13077000     -0.29020400     -0.54090000     -0.19569300
Fe       8.43733000      3.54323000      4.27513000      0.67446700     -0.23599500     -0.64586700
Fe       3.29483000      5.73045000      5.37000000     -0.49457700      0.47575700      1.69626300
Fe       6.37114000      3.15024000     -0.01471000     -0.86228100      0.49812000      0.71082800
Fe       5.36321000      5.44971000      1.33452000     -1.32472800     -1.40403600      0.39431400
Fe       8.27960000      7.76326000      1.38110000      0.56111800      0.99579400     -0.36853900
Fe       3.02204000      5.55969000      2.96556000     -0.27528400      0.55268600     -1.06726800
Fe       6.34269000      3.43224000      2.67743000      0.03776700     -0.56021500     -0.08445400
Fe       5.17672000      5.52651000      3.97864000      2.34673000      0.47292400      1.46667500
Fe       8.44084000      7.93062000      4.03332000     -0.76189600     -0.02472800      0.09737500
Fe       7.88424000      0.95362000     -0.10600000      0.04265600      0.86895900     -0.41102700
Fe       1.55040000      8.03065000      0.17009000      0.12742600     -0.61072300     -0.48175900
Fe       1.30573000      1.16210000      1.39748000     -0.25159300      0.52203500      0.20085200
Fe       3.75579000      3.28399000      1.43241000      0.96964000     -0.01103100     -0.96725600
Fe       7.71665000      1.22172000      2.47944000      0.62196900     -0.28585200      0.65872400
Fe       1.71406000      7.96237000      2.82814000     -0.83676000      0.35226400      0.05562300
Fe       1.00722000      1.17657000      4.28483000      0.14208200      0.06469000     -0.36342100
Fe       4.12806000      3.30012000      4.17834000     -0.78896700     -1.45354600      0.88145900
Fe       7.52735000      5.64351000     -0.11072000      0.64134000     -0.82718000      0.29338700
Fe       1.89917000      3.69469000      0.01923000     -0.55616300     -1.45360400     -0.25673300
Fe       0.94327000      5.56956000      1.44335000      0.07330400      0.30811700      0.21399600
Fe       3.77190000      7.99903000      1.37557000     -0.47218000     -0.68789800      0.63241300
Fe       7.78873000      5.74531000      2.79545000     -2.62852000      0.53286200     -0.29146800
Fe       1.73999000      3.39486000      2.81840000      0.14958500     -0.36340700      0.66909300
Fe       0.75508000      5.66189000      4.63886000      1.19915600      0.46626300     -1.06954000
Fe       3.94717000      8.00560000      4.11743000     -1.32689900     -0.76791200     -0.05412100
40
Lattice="8.861006196 0.171417547 -0.506022747 0.324737706 8.749077659 0.144781653 0.000050669 -0.004188844 5.487048182" Properties=species:S:1:pos:R:3:forces:R:3 stress="-0.0106326915762523 0.0046952126503176 -0.0283628652644550 0.0046952126503176 -0.0112204981763578 0.0033892455330865 -0.0283628652644550 0.0033892455330865 -0.0221369786872076" energy=-335.7051430000 pbc="T T T" step=600
C        2.61291000      2.30985000      3.93255000     -1.21877100     -1.50994000      2.09077300
C        0.32122000      4.43822000      2.79170000     -0.07457900      0.32066800     -0.29822600
C        2.53082000      6.73957000      4.11832000     -1.72558000     -1.62120400      0.85421800
C        6.97281000      2.44974000      3.56769000      1.03340400     -2.95417700      3.36383100
C        4.77269000      4.34081000     -0.11712000     -0.65028400     -1.09630300     -0.57093600
C        7.01324000      6.65390000      0.90966000     -1.72719200     -0.69407300      2.46061400
C        4.58044000      4.49556000      2.60660000      0.78331500     -0.70343600      0.53816200
C        7.08303000      6.72612000      3.81166000     -2.30314700     -1.30208400      2.15209000
Fe       3.47021000      1.21557000      0.00787000     -0.18709100      0.46073300     -1.34738500
Fe       6.01813000      7.64621000      5.18914000     -0.15809100     -0.05869700      0.91020000
Fe       5.78239000      1.26751000      1.02564000     -0.70210500     -0.82123700      0.40335000
Fe       8.45510000      3.31640000      0.91854000      0.43764800      0.77678700      0.86581000
Fe       3.39969000      1.19354000      2.68691000      1.11841300     -0.92101100     -0.57131400
Fe       5.98738000      7.69182000      2.63745000     -0.55384000      0.68015000     -1.58085700
Fe       5.69617000      1.04550000      4.08988000     -0.29283500      0.64122000     -1.34809000
Fe       8.33162000      3.63792000      3.72025000      0.91884600      0.21125100     -0.28651300
Fe       3.29584000      5.41678000     -0.04806000     -1.37013100      2.09249600     -0.64107100
Fe       6.34158000      3.35772000     -0.11386000      0.89077900     -1.38741100     -1.08575300
Fe       5.47275000      5.30513000      1.19429000      1.87576100      2.86328000      0.79413800
Fe       8.24838000      7.98518000      1.11943000      1.08959900      0.78785300     -0.75094100
Fe       3.47763000      6.01008000      2.60496000     -0.60372700     -0.62169800      0.00319800
Fe       6.19561000      3.29552000      2.35236000     -1.71303600      1.39857400     -1.60951000
Fe       5.62964000      5.35259000      4.02517000      0.24451100      0.91270000     -1.33174200
Fe       8.27026000      8.00704000      3.86386000      2.22069400      1.13782800      0.24370100
Fe       8.09309000      1.33453000      4.93001000     -0.31815000      0.27091700      0.55443400
Fe       1.66868000      7.79520000      0.24002000     -0.05267400     -0.49275400     -1.42896300
Fe       1.35041000      1.15578000      1.31906000     -0.34878100      0.11185000      0.02346800
Fe       3.67161000      3.38123000      1.31433000      0.99599800     -0.17482800     -0.48524600
Fe       7.82691000      1.14997000      2.25638000      0.37993900      1.09089000      0.24149900
Fe       1.59336000      7.69077000      2.71348000     -0.49361200      0.29318200      0.87308700
Fe       1.12585000      0.89503000      3.91215000      0.87311800      1.27314300      0.74589100
Fe       4.15129000      3.25348000      3.96446000      0.43799500      0.80603200      0.24114100
Fe       7.95090000      5.59135000     -0.24801000     -0.50229200     -0.07206500     -0.76965200
Fe       1.62444000      3.23053000      5.36903000      0.08740100      0.06948100      0.20181700
Fe       1.26397000      5.59551000      1.34021000     -0.23447800     -0.81386900      0.96034700
Fe       3.93517000      8.01443000      1.36301000     -0.33737800     -1.04767100     -0.02168200
Fe       7.84511000      5.90002000      2.48273000     -0.05314800     -1.53844300     -2.57398400
Fe       1.83606000      3.42073000      2.74507000     -0.64350100     -0.18085700     -0.90288500
Fe       1.03741000      5.49934000      4.30310000      1.12491700      0.53527100     -0.68043500
Fe       3.81996000      7.90517000      4.20974000      1.75208400      1.27745200     -0.23658500
40
Lattice="8.940622013 0.241312411 0.090659493 0.328341540 8.846338553 -0.018061200 0.000051947 -0.004294482 5.625425697" Properties=species:S:1:pos:R:3:forces:R:3 stress="0.0181832448319178 0.0070502838203294 0.0040322707639737 0.0070502838203294 0.0330740062459306 -0.0053729656376951 0.0040322707639737 -0.0053729656376951 0.0199709066534795" energy=-335.0701660000 pbc="T T T" step=800
C        2.77386000      2.19604000      4.54172000      1.58642900     -0.74334600     -2.61892400
C        0.24816000      4.25526000      2.82588000      0.67142400     -0.11701100     -0.14957700
C        2.30252000      6.65419000      4.22125000      1.35230700      0.35118200      1.49882300
C        7.22702000      2.24633000      4.35002000     -0.33278600      0.94355100     -0.44979700
C        4.74535000      4.43259000      0.13702000     -0.18119900      2.15352800      1.12189600
C        7.13531000      6.72457000      1.48216000     -0.57523200      0.96140800     -0.28556000
C        4.71837000      4.60977000      2.92364000      2.22307000     -0.27938400      1.18629200
C        7.09544000      6.75523000      4.33952000      0.06257300     -0.45094100     -1.66953000
Fe       3.64937000      1.15488000      0.26655000      0.95321500     -0.16593300     -0.12995700
Fe       6.43925000      7.84222000      5.60358000     -1.35546000      0.89727200      2.30463800
Fe       5.87358000      1.13336000      1.48537000      0.07093600     -0.13599500     -0.03653600
Fe       8.40054000      3.55259000      1.28731000      0.87823000     -0.18832300      1.09956700
Fe       3.73552000      0.96330000      3.17701000     -0.76777100      1.44121500     -1.49552700
Fe       5.99115000      7.90538000      2.91301000      1.27774600     -0.99255800     -0.39905500
Fe       5.77961000      1.14221000      4.26367000     -0.08904300     -0.68613300      0.89826200
Fe       8.64771000      3.41599000      4.44767000     -0.18409900      0.32729000     -0.52407000
Fe       3.10382000      5.57922000      5.61606000      0.98106400      0.25379200      0.81144700
Fe       6.25678000      3.42695000      0.28251000      1.35032800     -1.72415100     -1.18945700
Fe       5.49724000      5.64214000      1.50930000      0.49524600      0.10934300     -0.39093900
Fe       8.53335000      8.17584000      1.57010000     -0.66173500     -1.26128400     -0.18683100
Fe       3.35378000      5.70345000      2.93705000     -1.19600700      1.32445200     -0.26829300
Fe       5.94351000      3.11778000      2.82402000      2.56934300     -0.03777700      0.71825700
Fe       5.52635000      5.69993000      4.47967000     -0.48197400     -0.57608000     -0.82066500
Fe       8.51142000      8.07022000      4.24312000      0.46536200     -0.65051700     -0.23043000
Fe       8.11382000      1.15109000      5.61253000      0.11556400      0.29827400      1.50720200
Fe       1.43133000      7.69397000      0.02785000      1.13349700     -0.12914300     -0.04538600
Fe       1.58433000      1.15295000      1.41665000     -0.93162900     -1.20062000      0.32037200
Fe       3.89065000      3.60659000      1.64555000     -0.96857400     -1.52078400     -1.69851100
Fe       8.34645000      1.14005000      3.02029000     -0.72567800      1.94352800     -1.08717700
Fe       1.83466000      7.59643000      2.77056000     -1.10232400      2.18983500     -1.00001600
Fe       1.44978000      0.93329000      4.24253000     -0.79036100     -0.72606100      0.25367400
Fe       4.16137000      3.51942000      4.36546000     -1.43820600     -1.51920300     -0.61590000
Fe       8.25896000      5.95961000      5.61494000     -1.38699600     -0.53831400      1.85960200
Fe       1.95001000      3.23942000      0.01452000     -2.09948100      1.73319800      1.71128600
Fe       1.27063000      5.51922000      1.60019000     -0.26278300     -0.80160700     -0.53821600
Fe       4.00855000      7.83160000      1.35013000     -0.39209700     -0.15397300      0.39274800
Fe       7.75308000      5.69584000      2.89318000     -0.24455900      0.37042100      0.13036000
Fe       1.79266000      3.03171000      2.81415000     -0.02671600      0.56093100      0.69179300
Fe       1.08408000      5.28764000      4.30385000      0.05324600     -0.77357300     -1.05836800
Fe       3.93440000      7.84703000      4.36632000     -0.04486800     -0.48650600      0.38250300
40
Lattice="8.906414313 0.391403634 0.556324541 0.326399784 8.793941363 0.062512637 0.000050632 -0.004185802 5.483063034" Properties=species:S:1:pos:R:3:forces:R:3 stress="0.0092336136266484 0.0002862418476638 0.0240920627481826 0.0002862418476638 0.0258902352710257 0.0065922319523729 0.0240920627481826 0.0065922319523729 -0.0022644007676871" energy=-335.8395810000 pbc="T T T" step=1000
C        2.54220000      2.22587000      4.01623000      1.54929000     -0.22944000      0.53136500
C        0.67454000      4.55316000      2.77931000     -1.05921100     -1.88712600     -0.09060600
C        2.62244000      6.60709000      4.22287000     -0.66371200     -0.64437100      1.07115100
C        7.29955000      2.43435000      4.60558000     -1.68406500     -0.53435400     -0.73014600
C        4.62851000      4.43628000      0.48205000      0.05589500      0.83406400     -1.63807700
C        6.93817000      6.80263000      1.79154000      0.98002900      1.55103300      0.39988000
C        4.90092000      4.49304000      3.12594000     -0.57924600     -0.21182100     -0.65791400
C        6.93789000      6.93653000      4.54263000      0.60694000     -0.33885100      0.62831600
Fe       3.55105000      0.88760000      0.34353000     -0.05392600      1.61729500     -0.68526700
Fe       6.23978000      8.11250000      5.87416000     -0.01987600     -2.03323800      0.45644300
Fe       5.98397000      1.08900000      1.73544000     -0.16459500      1.70891100      0.32960000
Fe       8.52199000      3.79131000      1.93439000      0.02567100     -0.68217900     -0.80141500
Fe       3.73138000      0.93949000      3.12421000     -0.27178700      0.73281600     -0.87115000
Fe       6.21707000      7.96349000      3.16303000      0.33114800     -0.26889000     -0.25223000
Fe       5.74846000      1.24632000      4.50371000      0.52835000      0.53288300      0.00377600
Fe       8.54276000      3.72110000      4.50856000      0.74007400      0.74983300      0.19161300
Fe       3.06046000      5.72791000      0.52994000      2.37446800     -1.02944500     -1.16719900
Fe       6.31566000      3.54776000      0.42341000      1.19324200     -0.62666700     -0.23680800
Fe       5.49990000      5.68629000      1.74843000     -1.17867500     -1.58791500      0.18597900
Fe       8.63052000      8.09095000      1.73988000     -1.24915500     -0.09219700      1.39679600
Fe       3.15108000      5.38468000      2.93730000      1.06497200     -0.24971100     -0.22853600
Fe       6.40488000      3.32715000      3.00587000      0.32319800     -0.16834300      0.48209500
Fe       5.54122000      5.58062000      4.48659000     -0.48122900      0.00107600      0.93518100
Fe       8.55947000      8.09327000      4.91051000     -0.44041300      0.04699200     -1.76959000
Fe       8.27920000      1.63222000      5.97734000      0.01293000     -0.71658900      0.68918700
Fe       1.80757000      7.72376000      5.60676000      0.23729400      0.74058000      0.14522800
Fe       1.41551000      1.02482000      1.60868000     -0.02973400     -0.41354700     -2.07229900
Fe       4.12154000      3.01134000      1.57195000      0.31323800      0.65128000      0.37835300
Fe       8.12970000      1.27538000      3.19172000     -0.64925300      0.29461200      0.29971000
Fe       1.62293000      7.55856000      2.90164000      0.32106100     -0.04762200     -0.89223700
Fe       1.30286000      0.85352000      3.90908000     -0.00027200      0.35348000      1.82329500
Fe       4.24373000      3.21590000      4.35088000     -1.51327600      0.33638400      0.50170900
Fe       7.71655000      5.78146000      5.94313000      0.25979500     -0.13766400     -0.33301100
Fe       1.61149000      3.17549000      5.30888000      0.53812900     -0.15340000      0.73308200
Fe       1.03065000      5.47377000      1.32105000     -0.01431700      0.97950300     -0.82497700
Fe       4.14330000      7.78502000      1.65960000     -1.02840700     -0.51008600      0.51247500
Fe       7.92855000      5.98266000      3.25451000     -0.94809700      0.18887400     -0.22801300
Fe       1.96888000      3.15974000      2.43638000     -0.14343000      0.19236300      1.19080100
Fe       1.05898000      5.38187000      4.31692000      0.45396400      1.27759600      0.99617000
Fe       4.08228000      7.74230000      4.47406000      0.26298600     -0.22611800     -0.40272900
40
Lattice="9.027964596 0.658432895 0.408342561 0.319164056 8.599136636 -0.079166915 0.000050921 -0.004209689 5.514353149" Properties=species:S:1:pos:R:3:forces:R:3 stress="0.0003939141207074 0.0022377495239392 0.0223854843710072 0.0022377495239392 -0.0217045606970199 0.0070981437119124 0.0223854843710072 0.0070981437119124 -0.0065704615687211" energy=-336.0511540000 pbc="T T T" step=1200
C        2.60474000      2.19834000      4.11966000      2.00971900     -1.04489200     -2.02474500
C        0.52204000      4.14604000      2.49913000     -0.00214300     -1.01636500      0.47025200
C        2.44685000      6.48581000      3.86751000      0.71556900      0.27601800      0.25601600
C        7.49577000      2.44838000      4.30052000     -1.01451700      1.24689300     -1.72728800
C        4.99958000      4.52170000      5.43762000     -0.15949800     -0.93306000      1.70934500
C        7.09890000      6.76712000      1.43071000      0.55428800     -1.31434700      1.31251400
C        5.00057000      4.40258000      2.73407000     -2.02422800     -0.62015300      0.28199600
C        7.03782000      6.75263000      4.18637000     -0.09277300      0.62912400      0.27865500
Fe       3.77716000      1.19665000      5.51683000      0.21683000      0.04174200     -0.48614800
Fe       6.37895000      7.80999000      0.22265000     -2.21966800      0.93281300     -3.33237200
Fe       6.08423000      1.24524000      1.55714000     -0.67017400      1.30529900     -0.72316300
Fe       8.69623000      3.42851000      1.38741000      0.90926500      1.75656100      0.97531700
Fe       3.70470000      1.23448000      2.70877000      0.17326300     -0.65239300      0.17437500
Fe       6.17337000      7.75715000      2.82569000     -0.52570600     -0.00230600      0.69386600
Fe       5.93981000      1.37349000      3.99248000     -0.11829900     -0.42883000      1.06398100
Fe       8.86254000      3.78405000      4.27461000      0.07986700     -0.87472100      0.49743900
Fe       3.47584000      5.59523000      5.47560000     -1.41148900      0.05705300      0.08700900
Fe       6.55688000      3.43571000      5.64519000      0.40886300      0.18767700     -0.38939100
Fe       5.65168000      5.51478000      1.54147000      0.51353500      1.30855700     -3.04342000
Fe       8.28864000      8.24520000      1.48995000      2.23344100     -0.98134500     -0.08937500
Fe       3.38980000      5.55645000      2.51118000     -0.31304800     -0.29244000      0.11528100
Fe       6.67778000      3.69670000      2.88090000      1.59787000     -2.14018300      0.11745700
Fe       5.52325000      5.53595000      4.07822000      1.16069100      2.13106500      0.29867000
Fe       8.56046000      8.13243000      4.29547000     -0.64662000     -1.01146600     -0.30562500
Fe       8.28311000      1.56468000      5.61054000      0.98815900     -1.59742100      1.09394700
Fe       1.61353000      7.47085000      5.30506000     -0.76914200     -0.01055500      0.64350800
Fe       1.54072000      1.02228000      1.08264000     -0.04218000     -0.36680500      0.73081500
Fe       4.40936000      3.24851000      1.29837000     -0.66993600      0.17752700      0.12770000
Fe       8.30917000      1.49614000      2.83190000      0.44118300      0.50052800      0.55147400
Fe       1.42905000      7.36894000      2.38099000      0.72010900     -0.02201100     -0.00509800
Fe       1.45613000      0.69209000      3.85554000     -0.28779400      1.29645400     -0.04697600
Fe       4.39728000      3.24413000      4.08477000     -1.08317800      0.03274900      0.33075200
Fe       7.85196000      5.70653000      5.51293000      0.51391300     -0.19818800      0.37888000
Fe       2.05487000      3.26485000      5.35135000     -1.04785000      1.15611100      1.43950400
Fe       0.93184000      5.23986000      1.16429000      2.06307400      1.28540100     -2.27628300
Fe       4.03104000      7.78390000      1.20951000     -0.44638800     -0.46492600      0.59282800
Fe       8.03652000      5.83927000      2.80511000     -2.26781700      0.74337700      0.87349500
Fe       2.16685000      3.27232000      2.49254000      0.03292800     -0.93227900      0.20518900
Fe       1.23377000      5.21725000      4.03115000     -1.45720800     -0.84103400     -0.11411900
Fe       3.76166000      7.71130000      4.12852000      1.93709000      0.68077300     -0.73626200
40
Lattice="9.019272022 0.773077252 0.178816824 0.316319691 8.522341516 0.079910711 0.000051773 -0.004280122 5.606614487" Properties=species:S:1:pos:R:3:forces:R:3 stress="0.0195351057653734 0.0063208698623425 0.0085132685813467 0.0063208698623425 -0.0136082436463744 -0.0004384597709718 0.0085132685813467 -0.0004384597709718 0.0147575988179091" energy=-336.4592018500 pbc="T T T" step=1400
C        3.36380000      2.12661000      3.82789000     -2.28096200      0.61095700     -0.41835700
C        0.45737000      4.31396000      2.27675000      1.42565700      0.05922800      1.78897200
C        2.69125000      6.64633000      4.17155000      0.20497400     -1.77800900     -1.45624300
C        7.58578000      2.47674000      3.98980000      1.08492000      1.76667100      0.76370400
C        5.11999000      4.53902000      5.49757000      0.62076800     -0.09685000     -0.26252200
C        7.07943000      6.95058000      1.50815000      0.65091800      1.31189100     -2.61635700
C        5.28349000      4.54284000      2.67809000     -2.22597700     -0.10139300     -0.83992400
C        7.23572000      7.04130000      4.16352000      0.03131100     -0.53803800      1.41514500
Fe       4.02495000      1.30612000      5.32490000      0.44388700     -1.10115000      0.72369500
Fe       6.32179000      7.89547000      5.55400000      0.12144900     -0.65347200      0.90809900
Fe       6.34924000      1.40584000      1.18228000     -0.04927700     -0.13861300      0.56542400
Fe       8.91078000      3.82960000      1.28034000     -0.45584600     -0.02257700     -0.94863300
Fe       3.96509000      1.08189000      2.38127000      0.07416300      0.72139500      0.60298800
Fe       6.31322000      7.98635000      2.85025000     -0.17900300     -0.33350400     -1.17937700
Fe       6.25449000      1.27392000      4.06279000     -1.24380500      0.52242700     -0.00908400
Fe       8.73346000      4.24175000      4.12527000      0.52777500     -2.70323800     -0.29456100
Fe       3.48419000      5.47508000      5.55984000      0.46917200      0.62144400     -0.73971400
Fe       6.72901000      3.41569000      5.54527000      0.06209400      0.70422100     -0.88743300
Fe       6.03868000      5.46672000      1.29784000     -1.38126100      0.19124100     -1.16407800
Fe       8.76342000      8.16013000      1.37785000     -0.12596000      0.46150000      0.27019000
Fe       3.48131000      5.49034000      2.70678000      0.66221300      0.24584700     -0.13016200
Fe       6.70714000      3.46297000      2.59306000      1.58269800     -1.02353800      0.32094300
Fe       5.69409000      5.68997000      4.00619000      1.41823100      0.82642300      1.88063400
Fe       8.79479000      8.22751000      4.28120000     -0.30024500     -0.03043000     -0.66514400
Fe       8.52602000      1.69878000      5.47740000      0.58886100      0.39626600      0.27001500
Fe       1.87068000      7.63871000      5.39479000     -0.43133900      0.55756600      1.48333100
Fe       1.78528000      1.28475000      1.00716000      0.36943100     -0.62826500      0.37195800
Fe       4.52878000      3.22076000      1.21403000     -0.78646300      0.92055800      0.24946800
Fe       8.74352000      1.90552000      2.63453000     -0.04465900     -1.07407000     -0.08742900
Fe       1.92446000      7.65058000      2.60599000      0.16843300      0.11452100     -0.37671500
Fe       1.66497000      1.13069000      3.95718000      0.28086200      0.07199700     -0.33318000
Fe       4.55825000      3.47823000      4.02505000      0.29199600     -0.20929200      0.11732900
Fe       8.33938000      5.98796000      5.59105000     -1.15584200      1.02109100      0.47449700
Fe       2.25608000      3.38332000      5.14128000     -0.67943800     -0.43806600      0.42257900
Fe       1.56971000      5.35651000      1.17910000     -0.90954600      0.69863400     -0.27434600
Fe       4.09439000      7.64996000      1.23718000     -0.22162200     -0.46815300     -0.41818000
Fe       7.97985000      6.09736000      2.79306000      0.19467400     -0.29683300     -0.13706200
Fe       2.14499000      3.30917000      2.56409000      0.25607800     -0.84111200     -0.02783600
Fe       1.18359000      5.43701000      3.86338000      1.12907900      0.06587200      0.23033400
Fe       4.23413000      7.65319000      3.99354000     -0.15474000      0.55157100      0.45055100
40
Lattice="9.074398938 0.634985301 -0.070307480 0.317269017 8.547913885 0.084621075 0.000051162 -0.004229564 5.540387793" Properties=species:S:1:pos:R:3:forces:R:3 stress="0.0153043300467956 0.0018047822809529 0.0021292471301888 0.0018047822809529 -0.0135281588434400 0.0006007265238896 0.0021292471301888 0.0006007265238896 -0.0037905558420471" energy=-335.9835610000 pbc="T T T" step=1600
C        3.29187000      2.29743000      3.71345000     -1.01402600      0.64710300      0.02853000
C        0.61123000      4.32006000      2.22672000      2.02535100     -0.55280100     -0.36584900
C        2.82589000      6.61319000      3.59099000      0.27491300      0.46848300      2.58022400
C        7.60634000      2.64699000      3.49524000      0.95040600     -0.05677900      0.57972600
C        5.42396000      4.51836000      4.84070000     -0.48189900      1.52003800      1.73531500
C        7.45753000      6.98069000      0.61446000      0.53407200      0.91991500      2.61499300
C        5.18845000      4.73044000      2.16983000      0.82741200     -0.51572200     -1.64919000
C        7.48662000      7.05201000      3.63404000     -0.90006000     -1.46560300     -1.11184300
Fe       4.10914000      1.25509000      5.02573000      0.36753200      0.50723200      0.75775400
Fe       6.71500000      8.17339000      4.91822000     -0.26457800     -0.97025700      1.30204200
Fe       6.50586000      1.45965000      1.07788000     -0.63008400      0.41166800     -1.54316400
Fe       0.25250000      3.04132000      0.87555000     -1.88502400      0.72745300      0.25217200
Fe       3.98351000      1.31638000      2.25580000      0.75650700     -0.26796900     -0.60695800
Fe       6.38694000      8.10033000      2.38481000      1.16707000     -1.26640900     -1.45428700
Fe       6.20170000      1.53602000      3.72314000     -0.68268900      0.39091600     -0.53404400
Fe       8.97611000      3.88375000      3.50890000      0.89079300     -0.22568700      0.91225400
Fe       3.80719000      5.62028000      5.03701000     -0.45583000      0.00667400     -0.24410900
Fe       6.98523000      3.64658000      5.24538000      0.64575800     -0.57492100     -1.64352500
Fe       6.04201000      5.83507000      0.72465000     -1.30508900     -1.30642300      0.16699300
Fe       8.95046000      8.28125000      0.78713000     -0.26215800     -0.90177500     -0.17465500
Fe       3.58909000      5.78427000      2.23253000      1.50119300     -1.49758800     -1.73972100
Fe       7.02204000      3.58213000      2.00270000     -1.31296900      1.42714000      0.55851800
Fe       5.90612000      5.83516000      3.37372000      1.14955100      0.17026400      2.11813900
Fe       8.88465000      8.17168000      3.43723000      1.31427900      0.59463400      0.50519300
Fe       8.67637000      1.56353000      4.70816000      0.08070400      0.71371600      1.12290700
Fe       2.04329000      7.61675000      5.07570000      0.03980700     -0.78116000      0.01006900
Fe       1.87635000      1.11798000      0.83922000      0.27447000     -0.78864500      0.62533200
Fe       4.58568000      3.43893000      0.95478000     -0.29287500      0.26226500     -1.39284800
Fe       8.84194000      1.67151000      2.02286000     -0.47459000      0.16674400      0.93734300
Fe       1.88389000      7.50583000      2.28328000     -0.00571100      1.29848300     -0.68041600
Fe       1.85339000      1.03750000      3.73865000     -0.67925200      0.10670100     -1.17778600
Fe       4.65499000      3.56486000      3.51567000      0.08221900     -0.58051500      0.46945300
Fe       8.38009000      5.91937000      4.97326000      0.28085600     -0.26406500     -0.79487900
Fe       1.95464000      3.11615000      5.07799000      2.13487800      1.00980900     -1.31657100
Fe       1.64734000      5.38183000      0.88483000     -0.55970000     -0.02842900     -0.31643900
Fe       4.38886000      7.87825000      0.90021000     -0.62106800     -0.69277800      0.14158900
Fe       8.29194000      6.06165000      2.17903000     -1.45961800      1.11721700     -0.58402600
Fe       2.39726000      3.37956000      2.37395000     -0.63574400     -0.60273500     -0.52400000
Fe       1.49356000      5.23102000      3.70798000     -0.17241600      0.85671100      0.30023100
Fe       4.47053000      7.78468000      3.72566000     -1.20239300      0.01709500      0.13553400
40
Lattice="8.957745899 0.565822302 0.003355284 0.321417649 8.659896156 -0.120897975 0.000051160 -0.004229429 5.540210787" Properties=species:S:1:pos:R:3:forces:R:3 stress="0.0069805973715130 -0.0010428001286155 -0.0051875241615838 -0.0010428001286155 0.0045352178067028 -0.0060255591019935 -0.0051875241615838 -0.0060255591019935 0.0088887265597209" energy=-337.4379340000 pbc="T T T" step=1800
C        3.23834000      2.49793000      3.69019000      0.91837100     -0.60061000     -0.62748700
C        0.84360000      4.46258000      2.35804000      1.22804700     -0.29887200     -1.17765900
C        2.98581000      6.97125000      3.59838000      0.51958500     -1.06189500      0.99103100
C        7.72638000      2.73318000      3.50360000      0.34826000     -0.03054800     -0.12074700
C        5.51561000      4.84000000      4.99373000     -1.11444900     -0.14588400     -1.62747700
C        7.32618000      7.17917000      0.78293000      2.06143500     -0.89211100      0.38910500
C        5.27305000      4.76203000      2.19519000      0.75302600      1.05333200     -0.74438300
C        7.52498000      7.14748000      3.61431000     -0.37121100      1.12938100     -1.31990000
Fe       4.11038000      1.46601000      5.06555000      0.02297400     -0.00162800     -0.83983700
Fe       6.56423000      8.16276000      5.02474000     -0.18863800      0.82089100     -1.47499600
Fe       6.26508000      1.60645000      0.94758000      0.65619500      0.55485100     -0.61707200
Fe       0.22593000      3.46953000      0.67726000      0.43453400      0.02926200      0.89935300
Fe       4.07098000      1.45266000      1.99330000      0.12909400      0.18151400      2.04513200
Fe       6.71845000      8.25613000      2.15105000     -0.47990600     -0.01416700      1.29901300
Fe       6.19794000      1.82420000      3.65419000     -0.75183400     -1.98573700     -0.05319400
Fe       0.16117000      3.29003000      3.71118000      1.86219000      1.76322100     -0.83600700
Fe       3.87200000      5.91941000      5.05202000     -0.39470700     -0.09692700     -1.07911900
Fe       7.03525000      3.79698000      4.92433000     -0.05520100      0.14913000      0.85730500
Fe       5.95368000      5.93242000      0.79649000      0.45661700      0.31294600      1.65851400
Fe       8.95512000      8.42558000      0.82174000     -0.24125300     -0.30616000      0.02021600
Fe       3.66939000      5.90463000      2.21664000      1.24593200     -0.72173300     -0.57345900
Fe       7.16959000      3.95971000      2.02561000     -1.31305000     -0.61610400      0.28914900
Fe       6.11197000      5.93192000      3.53028000     -0.92403000     -0.27011700     -0.16888400
Fe       8.91825000      8.45875000      3.65805000     -0.12130000     -0.04582300     -0.50050100
Fe       8.74193000      1.84400000      5.06167000     -0.52326100     -0.50489100     -0.16993000
Fe       2.00211000      7.74888000      5.02181000      0.19212000      1.02988300      0.61053400
Fe       1.92565000      1.36943000      0.78371000     -0.09768800     -0.54122500      0.08854600
Fe       4.70329000      3.72128000      0.71452000     -0.72818800     -0.64276100      0.74994000
Fe       8.80246000      1.85907000      2.15092000     -0.45013400     -0.47412600      0.31396800
Fe       2.05106000      7.93051000      2.36624000     -0.33931500     -0.16417900     -2.60112600
Fe       1.86154000      1.17819000      3.56078000      0.04233600      1.10904500      0.95795600
Fe       4.72573000      3.73468000      3.57736000     -0.41856400     -0.57410700      0.62132300
Fe       8.30320000      6.12641000      4.88855000      0.72776700     -0.32726800      1.52800900
Fe       2.32588000      3.65486000      4.83717000      0.29522300     -0.50776800      1.07557100
Fe       1.81298000      5.55392000      0.68214000     -0.93750500      0.32888000      1.44115300
Fe       4.29214000      7.96807000      0.82593000     -0.05326600      0.14768300     -0.08275900
Fe       8.36099000      6.10880000      2.13387000     -0.91343700      1.40036900      0.03078500
Fe       2.46456000      3.39015000      2.23956000     -0.84044700      0.83259500     -0.81024300
Fe       1.61696000      5.66400000      3.63892000     -0.86215000     -0.69681900     -0.25343500
Fe       4.51865000      8.03382000      3.59742000      0.22582700      0.67847900     -0.18839000
40
Lattice="8.898005763 0.424535789 0.284102404 0.320156665 8.625858524 -0.058012383 0.000051684 -0.004272765 5.596977203" Properties=species:S:1:pos:R:3:forces:R:3 stress="0.0100948295317606 -0.0060562798096580 0.0169717242300015 -0.0060562798096580 0.0089602917027686 -0.0077174948988802 0.0169717242300015 -0.0077174948988802 0.0211995726808234" energy=-337.6264750000 pbc="T T T" step=2000
C        3.18737000      2.46779000      3.70136000      0.40728200      0.32355600      0.49081300
C        0.73860000      4.56939000      2.19829000      1.43694600     -0.10346400      0.42784400
C        3.01368000      6.71062000      3.77060000     -0.94131900      0.16326300     -0.62006800
C        7.76399000      2.63954000      3.91711000     -0.43463200     -0.12597700     -0.41694600
C        5.20260000      4.70899000      5.07055000      0.79237600     -0.02236800      0.24442900
C        7.24579000      6.92081000      0.93839000      1.04793900      1.14943000      1.09593700
C        5.09727000      4.74592000      2.26128000     -0.57130100     -1.04471300      0.08576400
C        7.39589000      6.92484000      3.80975000     -0.33997700      0.57967500     -0.02577200
Fe       3.95523000      1.35307000      5.23804000      0.19260800      0.85746700     -1.71108500
Fe       6.45304000      7.88576000      5.10506000     -0.55908600      0.69582700      0.46560600
Fe       6.27181000      1.48376000      0.94706000      0.28692100      0.31256100     -0.00220200
Fe       8.96594000      3.88136000      1.04467000      0.29396500     -0.23531000      0.52073800
Fe       4.11566000      1.39507000      2.20736000     -0.54515200      0.51702800      1.20932100
Fe       6.49539000      8.15622000      2.31694000      0.33994500     -1.23328400     -0.06075500
Fe       6.09376000      1.36567000      3.81850000      0.97569000      1.25773100      0.26073400
Fe       0.37770000      3.48123000      3.76885000     -2.24948200     -0.74633600     -1.05213200
Fe       3.80960000      5.88467000      5.26117000     -1.15302400      0.24706100     -0.88228400
Fe       6.81308000      3.65534000      5.20910000      0.29370500     -0.36579100     -0.33689300
Fe       5.93496000      5.67226000      0.95540000     -0.47737700     -0.01649300     -0.64970500
Fe       8.76698000      8.23723000      0.99368000     -0.23596500      0.11424000      0.32005500
Fe       3.49273000      5.98830000      2.01131000      0.96518700     -1.23457400      0.91437800
Fe       6.87904000      3.64717000      2.31669000     -0.20584200     -0.62664900      0.61839800
Fe       5.89816000      5.81564000      3.54220000     -0.74046500      0.01961300      1.54115500
Fe       8.69317000      8.30562000      3.90925000      0.78435400      0.04533400     -0.27163800
Fe       8.66313000      1.68943000      5.40581000     -0.76504500      0.36169600     -1.02256500
Fe       2.02556000      7.85822000      5.03942000      0.26774900      0.32327900      0.18305000
Fe       1.81307000      1.26329000      0.75860000      0.34713700      0.55134400      1.13779000
Fe       4.40787000      3.52545000      0.87736000      0.52985400      0.40282600      0.20894600
Fe       8.66152000      1.66971000      2.48834000     -0.62368300      0.06574000      0.44809600
Fe       2.02560000      7.80513000      2.31688000     -0.36824600      1.03909300     -0.41724400
Fe       1.83393000      1.29573000      3.61376000     -0.86166100     -0.70228900      0.15683800
Fe       4.59734000      3.64077000      3.70629000      0.21048700     -0.51435300     -0.34875400
Fe       8.13971000      5.84867000      5.26465000      0.14501000      0.18527700     -0.44908600
Fe       2.21332000      3.78444000      5.08470000      1.09825800     -1.21482300      0.43393600
Fe       1.33837000      5.86704000      0.77493000      0.77976300     -1.05717200      0.58508500
Fe       4.29693000      8.03657000      0.85753000     -0.09006400     -0.61591500      0.33059800
Fe       8.17162000      6.05004000      2.44465000     -0.73684200      0.23691100     -1.14406000
Fe       2.39391000      3.57636000      2.35466000     -0.36362100     -0.02644600     -1.06733200
Fe       1.39851000      5.74775000      3.81447000      0.14095900     -0.25512200     -1.03696100
Fe       4.30247000      7.99204000      3.68345000      0.92664800      0.69212900     -0.16402800
40
Lattice="9.045882263 0.482966152 0.129338895 0.325714943 8.775491629 0.060993652 0.000050535 -0.004177766 5.472536246" Properties=species:S:1:pos:R:3:forces:R:3 stress="0.0100716236010218 -0.0032907420368733 0.0074346671566801 -0.0032907420368733 0.0287609986452967 0.0105438561775955 0.0074346671566801 0.0105438561775955 -0.0006255614884969" energy=-336.3217680000 pbc="T T T" step=2200
C        3.03578000      2.40865000      3.62290000      0.16071300      1.44015500     -0.79125300
C        0.53647000      4.61063000      2.19594000      0.62112300     -0.41650600      0.38619400
C        3.02196000      6.98790000      3.72380000     -2.03663000     -0.59264200     -0.73562500
C        7.47572000      2.80749000      3.69142000      0.26605000     -0.41827800     -0.66329100
C        5.25405000      5.11613000      4.87537000     -1.56310000     -2.55823200      0.37879100
C        7.25635000      7.33694000      0.82637000     -0.95329800     -1.25097500      0.62555100
C        5.20157000      4.97487000      2.27661000      0.08128400     -0.91490200     -1.57702000
C        7.46285000      7.23831000      3.70512000     -0.31739100     -1.14998800     -1.28503200
Fe       3.87644000      1.53984000      4.98018000     -0.12498000     -1.06187800      0.61213600
Fe       6.50364000      8.32954000      4.85284000     -0.32030600      0.03296500      1.86733200
Fe       5.98277000      1.64981000      0.82557000      1.02916500      0.15052300      0.49018300
Fe       8.89604000      3.85863000      0.97994000      0.22726000      0.35915200     -0.22392200
Fe       4.04920000      1.31189000      2.19936000     -1.13530800      0.97615000     -0.09469100
Fe       6.54470000      8.30521000      2.35214000     -0.36987300      0.42107400     -1.19498900
Fe       5.99816000      1.65274000      3.76376000      0.40325000      0.13392400     -0.91986500
Fe       8.95086000      3.94666000      3.78179000      0.76122400      0.70203200     -0.49730300
Fe       3.49580000      5.86457000      5.08173000      0.62172300     -0.31353500     -0.06783200
Fe       6.78668000      3.96699000      4.98680000      0.06385300     -0.82766000      0.30964400
Fe       5.88148000      5.98347000      0.81670000     -0.19533900      1.17194300      1.49981000
Fe       8.70976000      8.38726000      0.89806000      1.99590000      1.05172600      0.44348600
Fe       3.62123000      5.96652000      2.17705000     -0.35407100     -0.17779400      0.34128000
Fe       6.82211000      3.87710000      2.09425000     -0.66879900     -0.49019600      0.80127000
Fe       5.92984000      6.10291000      3.56997000     -0.54091300      0.31029200     -0.66673300
Fe       8.85388000      8.41186000      3.58583000      0.64580300      0.05449000      0.32287600
Fe       8.50882000      1.52719000      4.89418000     -0.58657700      1.34598100      1.00504800
Fe       1.91815000      7.99752000      5.05974000     -0.20500800      0.08028400     -0.01269300
Fe       1.41808000      1.32923000      0.98370000      1.34690400     -0.48659800     -1.61891300
Fe       4.43787000      3.74715000      0.64292000      0.08698100      0.24274900      1.38253800
Fe       8.48282000      1.77250000      2.30813000     -1.77565500     -0.44079100     -0.33288600
Fe       1.90533000      8.02102000      2.47877000      0.51575700     -0.46868600     -1.76063600
Fe       1.51337000      1.39631000      3.33645000      0.28763700     -0.46723500      1.87035000
Fe       4.60021000      3.68771000      3.53007000     -1.01211200      0.26097800      0.15686400
Fe       8.09761000      6.01720000      5.06952000      0.90392400      0.72334000     -0.40117800
Fe       1.94449000      3.43182000      5.13436000      0.98879700      0.08922200     -1.28444000
Fe       1.47801000      5.55289000      0.81717000     -0.42660500      0.95389200      0.09854800
Fe       4.03795000      7.95825000      0.81760000      0.57437600      1.00520500      0.41075500
Fe       8.02949000      6.15028000      2.17538000      0.87763200      0.29460300      0.69288200
Fe       2.22958000      3.56863000      2.27347000      0.13713600     -0.09903000      0.06482100
Fe       1.46600000      5.71828000      3.56762000     -0.62023900     -0.23207800      0.14464300
Fe       4.36785000      8.17220000      3.61530000      0.60971200      0.56632300      0.22330200
40
Lattice="8.913020222 0.483044523 -0.141407965 0.322998506 8.702610912 -0.242036089 0.000050391 -0.004165870 5.456953169" Properties=species:S:1:pos:R:3:forces:R:3 stress="-0.0158688683010715 0.0009661294311449 -0.0120252409073643 0.0009661294311449 -0.0077174075177531 -0.0154626833735237 -0.0120252409073643 -0.0154626833735237 -0.0239413989606342" energy=-336.1113630000 pbc="T T T" step=2400
C        2.86526000      2.63470000      3.45784000      0.53182500     -0.99765500      0.63680700
C        0.51398000      4.58331000      1.76739000      0.02807700     -0.59202200     -0.37874900
C        2.66931000      7.04188000      3.36775000      0.34497200     -1.15873900     -0.17546400
C        7.57816000      2.73130000      3.37198000     -2.15960800      1.13879800     -1.39061600
C        4.91742000      4.68458000      4.76600000     -0.41707400      1.60360000     -0.57270400
C        7.09963000      7.19807000      0.46859000      1.51882800     -0.43160100      1.00456100
C        4.86164000      4.75398000      1.83848000      1.38133200      2.45596100      2.05588800
C        7.25494000      7.05181000      3.29085000      0.40097200      0.68482700     -0.66995900
Fe       3.66062000      1.46927000      4.86777000      0.84987200      0.16548800     -0.27004400
Fe       6.32599000      8.14488000      4.57361000     -0.19172300      0.45220300      0.01241700
Fe       6.01737000      1.52878000      0.71612000      0.25601100      0.30927500     -0.28793100
Fe       8.54691000      3.67114000      0.29914000      0.51923600      2.79838800      2.03187100
Fe       3.90842000      1.48115000      2.09460000     -0.28015600     -0.26730000      0.09387600
Fe       6.32870000      8.14851000      1.89750000     -0.25590600      0.06966000     -0.36047300
Fe       6.07500000      1.40494000      3.46697000     -0.51992100      0.92445200     -0.37687500
Fe       8.92847000      4.03244000      3.18776000     -1.30705300      0.31122500      0.38175400
Fe       3.35875000      5.79328000      4.65559000      0.23703300      0.36722600     -0.13418000
Fe       6.34933000      3.60088000      4.64260000      1.22081200     -0.20941400      0.30031700
Fe       5.68988000      5.99590000      0.58168000     -1.69682400     -1.68493500     -0.55941200
Fe       8.73837000      8.41839000      0.44448000     -0.80995400     -0.26909000      0.10920000
Fe       3.23522000      5.94261000      1.70672000      1.52804800      0.33024900      1.01335100
Fe       6.48980000      3.66338000      1.93944000      0.27671600     -0.09345400      0.28742400
Fe       5.79690000      5.98398000      3.24448000     -2.62081900     -2.16532800      0.24619000
Fe       8.57765000      8.36458000      3.07117000      0.79730800      0.18702600      0.54924100
Fe       8.32566000      1.82989000      4.66994000      1.00966200     -2.88950100      0.86429400
Fe       1.91350000      8.02381000      4.82832000     -1.02878600     -0.02192200     -1.12263600
Fe       1.44248000      1.41888000      0.81028000      1.70670800     -0.41479100     -0.91067500
Fe       4.08808000      3.63801000      0.76694000     -0.05894000     -0.98595800     -2.74370100
Fe       8.48219000      1.87010000      1.96593000     -1.37194700     -1.02592400     -0.11281500
Fe       1.86047000      8.11960000      2.10839000     -0.08134800     -0.87324100     -1.93292700
Fe       1.60784000      1.35980000      3.30814000     -1.00340900     -0.32666500      1.93566300
Fe       4.19987000      3.80150000      3.28391000      1.11980600      0.38338200      0.87895200
Fe       7.93705000      5.96675000      4.67515000      0.52521500      0.19170700     -0.24725200
Fe       1.87860000      3.48041000      4.89420000      0.21184400      0.80789900     -0.43196900
Fe       1.26782000      5.79083000      0.48476000     -0.67594200     -0.29037200     -0.38431500
Fe       3.91641000      8.09512000      0.35842000      1.41549100     -0.02774100      1.65463600
Fe       7.86682000      5.99699000      1.84599000     -0.19077800      0.67673600     -0.60877400
Fe       2.03436000      3.51566000      2.07331000     -0.24677800      0.26274500     -1.56170900
Fe       1.26503000      5.76144000      3.08526000     -0.54142600      0.36258200      1.59327500
Fe       4.25632000      8.07106000      3.28853000     -0.42137500      0.24222100     -0.41653500
40
Lattice="8.913303290 0.158757842 -0.073011223 0.323053479 8.704185588 -0.334471418 0.000051829 -0.004284741 5.612665000" Properties=species:S:1:pos:R:3:forces:R:3 stress="0.0161043417139237 -0.0074811726407939 -0.0024577315112686 -0.0074811726407939 0.0272044099726897 -0.0142175772112777 -0.0024577315112686 -0.0142175772112777 0.0302403985751798" energy=-336.7347990000 pbc="T T T" step=2600
C        2.83233000      2.38332000      3.54882000      0.49602300      1.54238700      0.25790800
C        0.57182000      4.75342000      2.08221000     -0.14403800      0.49823000      0.37560300
C        2.85635000      6.94374000      3.45455000     -1.98299600      0.66443000      0.31672500
C        7.45998000      2.55702000      3.37718000     -0.32862100      0.15893000      1.22862400
C        5.08992000      4.68228000      5.04019000     -0.71295100      0.57960200     -1.01831200
C        7.15368000      7.07934000      0.60621000     -1.39147400      0.23698300     -1.17592200
C        4.93054000      4.81292000      2.20269000     -0.38930900     -0.95591600      0.47692300
C        7.13298000      7.11655000      3.36669000     -0.12598400      0.28323000      0.34831600
Fe       3.61676000      1.53433000      5.08989000      0.31217700     -0.30502600     -1.13817000
Fe       6.46752000      8.15726000      4.72851000     -0.65598600      0.74703000      1.23526300
Fe       5.70624000      1.87014000      0.85654000      1.60685200     -2.10317000     -0.34804100
Fe       8.75392000      3.81576000      0.61064000      0.05765900     -0.37236100      0.52287500
Fe       3.52756000      1.44051000      2.01481000      1.00040400     -0.49340200      1.45793400
Fe       6.13413000      8.28519000      1.98522000      1.07621500     -0.69715800     -0.93909900
Fe       5.77070000      1.66615000      3.51840000      0.36967800     -0.46760800      0.41925200
Fe       8.84867000      3.83800000      3.44989000      0.09952300     -0.26471900      0.04912500
Fe       3.39646000      5.91873000      4.86763000      0.99513200     -1.26067400      1.05335400
Fe       6.76122000      3.69577000      4.96180000     -1.03048900      0.08323000     -0.51490800
Fe       5.59667000      5.75610000      0.84710000      1.45384800      1.58658700     -2.20348200
Fe       8.64588000      8.21177000      0.55107000      0.54204800      0.08027300     -0.15484600
Fe       3.45329000      6.06977000      1.98796000      0.08331300     -1.27168300     -0.75896900
Fe       6.69099000      3.83365000      2.18001000     -0.69385800     -0.14147800     -0.37008400
Fe       5.59572000      6.05482000      3.50322000     -0.37335400     -1.48586400      0.70875300
Fe       8.66805000      8.25174000      3.42438000      0.31232000     -0.43443700     -0.84872100
Fe       8.21740000      1.47776000      4.97522000     -0.28183200      1.20335600     -0.05747200
Fe       1.88043000      8.05795000      4.85702000     -0.28795400     -0.37168300     -0.84810300
Fe       1.53372000      1.43829000      0.81329000     -0.62063100     -0.01310200     -0.31008900
Fe       4.28680000      3.53076000      0.78921000     -0.62638900      2.25959400     -0.24038600
Fe       8.44362000      1.50426000      2.10057000     -0.87501200      0.56152900      0.39842500
Fe       1.86648000      7.97546000      1.95614000     -0.03413700      0.31149300      0.23627400
Fe       1.41299000      1.27668000      3.66577000     -0.47328900     -0.02651100      0.01923600
Fe       4.28509000      3.64581000      3.57090000      0.46929400      0.61116900      0.45455200
Fe       8.01650000      5.89285000      4.70703000     -0.58400100      0.61849600      0.89861400
Fe       1.89164000      3.66803000      5.02038000      0.63202400     -0.38263700     -0.71299100
Fe       1.32740000      5.82185000      0.67842000      0.05441800      0.15541100      0.12260800
Fe       4.02719000      8.12495000      0.27061000      0.64023100     -0.44949900      1.37691900
Fe       7.84035000      6.19327000      1.99516000      1.73218200     -1.85106800      0.00450000
Fe       2.15511000      3.54538000      2.12566000     -0.89181600      0.47045000      0.16613900
Fe       1.17639000      5.84944000      3.63972000      0.73076900      0.11878900     -1.11668300
Fe       4.19518000      8.20363000      3.22001000     -0.15998800      0.57679700      0.62835800
40
Lattice="8.820538516 0.046996997 0.158070669 0.319671732 8.612834530 -0.098795188 0.000051198 -0.004232574 5.544330309" Properties=species:S:1:pos:R:3:forces:R:3 stress="-0.0223967815024320 -0.0086372311930746 0.0106217939014083 -0.0086372311930746 -0.0131820734067702 -0.0085490012207980 0.0106217939014083 -0.0085490012207980 -0.0083200813924740" energy=-337.8784750000 pbc="T T T" step=2800
C        2.88611000      2.69500000      3.69372000     -0.81706800     -0.18992500     -0.13080100
C        0.42428000      4.86697000      2.07271000      1.45100600     -0.13032100      0.74438300
C        2.88961000      7.05044000      3.70648000     -1.84026500     -1.18222900     -0.16839900
C        7.24981000      2.70206000      3.71184000      0.83983800      0.48147200      0.74958200
C        4.92984000      4.90253000      5.00588000      0.52435200     -0.24648900      0.75562200
C        6.94627000      7.06799000      0.94941000      1.85757500      0.55625500      0.79015000
C        5.01350000      4.77540000      2.30208000     -0.16811800     -0.35942200     -1.15892000
C        7.09930000      7.15493000      3.71476000      0.51282900     -0.22487700      0.95540200
Fe       3.61642000      1.52631000      5.04396000      0.55024900      0.36302300      0.38928900
Fe       6.29529000      8.21727000      5.18885000      0.20590300     -0.10213100     -0.30973600
Fe       5.88522000      1.71111000      1.06108000     -0.21333200     -0.83138700     -0.81495400
Fe       8.74310000      3.80623000      0.81174000     -0.57200500      0.18629000      0.70345300
Fe       3.48815000      1.63227000      2.20543000      0.97433600     -0.36222000      0.61280900
Fe       6.17011000      8.16669000      2.44417000      1.15938100     -0.17318600     -2.15757700
Fe       5.83581000      1.51845000      3.71994000     -0.54039900      0.59143400      0.48291200
Fe       8.64421000      4.07808000      3.89493000     -0.64496500     -1.41319600     -0.82205100
Fe       3.34308000      5.86114000      5.15898000      0.44367500      0.54918800     -0.09506200
Fe       6.52603000      3.81570000      5.13598000     -0.17862100     -0.54879200     -0.26711200
Fe       5.70929000      5.75215000      0.94738000     -0.51474800      0.59622000     -1.07472500
Fe       8.83030000      8.14487000      0.92384000     -1.42906600      0.41958600      0.43994500
Fe       3.52830000      5.98988000      2.31544000     -0.16734700     -0.05464000     -0.72818100
Fe       6.52270000      3.59147000      2.19970000      0.22780700      1.02265200      0.41695800
Fe       5.69461000      5.97241000      3.55391000     -0.72324100     -0.58546900      2.06454300
Fe       8.61712000      8.19740000      3.81238000      0.54913200      0.68993800     -0.49874400
Fe       8.18447000      1.68983000      5.18284000     -1.07161400     -0.04928600      0.03869900
Fe       1.98753000      8.07224000      4.98298000     -0.51451200      0.57593500      0.68011000
Fe       1.48606000      1.57861000      0.86319000      0.40232400      0.20234300      0.19620800
Fe       4.12200000      3.68034000      0.87761000      0.09305100      0.29595400      0.03088400
Fe       8.30179000      1.82154000      2.34888000     -0.17565700     -1.03249400      0.29915700
Fe       1.92198000      8.23023000      2.32286000      0.27736000     -0.41717900     -0.22521900
Fe       1.29954000      1.57415000      3.79106000      1.03024400      0.30648600     -0.67058400
Fe       4.36546000      3.80605000      3.65242000     -0.67994000     -1.25819000      0.61276000
Fe       8.04543000      6.08240000      5.14524000     -0.62650600      0.22963100      0.18329900
Fe       1.93955000      3.78634000      4.98242000      0.50659700     -0.00666500      0.31262700
Fe       1.48549000      6.13809000      1.06906000     -0.50666200     -0.77579600     -1.02703300
Fe       4.12381000      8.10914000      0.90792000     -0.49372300     -0.09323800     -0.10296900
Fe       7.85241000      6.01014000      2.39618000     -0.88053300      1.62995400     -1.17938700
Fe       1.92490000      3.74833000      2.33046000      0.79292100     -0.68515500     -0.49240300
Fe       1.36008000      5.83976000      3.61011000     -0.14238900      0.96015100      0.31478500
Fe       4.25503000      8.15303000      3.66687000      0.50213100      1.06577600      0.15028100
40
Lattice="9.010009852 0.091499652 -0.011664450 0.322300650 8.683649699 -0.084663489 0.000051030 -0.004218680 5.526130642" Properties=species:S:1:pos:R:3:forces:R:3 stress="0.0204078559792553 -0.0102867559358003 -0.0006708061877777 -0.0102867559358003 0.0118534308870716 -0.0001407834786835 -0.0006708061877777 -0.0001407834786835 0.0107540639617142" energy=-337.1921330000 pbc="T T T" step=3000
C        3.00903000      2.74181000      3.77871000     -0.68279000     -1.40586300     -0.94128100
C        0.86645000      4.82019000      2.26953000     -0.95172400      0.93921600     -0.48275200
C        2.90690000      7.08970000      3.71655000     -0.35905200      0.94761400     -1.06141000
C        7.79196000      2.89024000      3.65510000     -0.62883800     -1.13938900      1.32889700
C        5.32868000      5.04222000      4.96671000     -1.32799800     -1.04543800      1.15237400
C        7.32100000      7.14450000      0.84732000      0.53862300      0.39497500      2.10495700
C        4.94065000      4.94571000      2.30338000      1.07199700      0.23228500     -0.12754500
C        7.30368000      7.28108000      3.79915000      0.60054400     -2.00632300     -0.52445400
Fe       3.88057000      1.69504000      5.26526000     -0.40185700     -0.30788700     -0.70100500
Fe       6.34641000      8.12849000      5.11688000     -0.20299400      0.87512600      0.42693700
Fe       6.12570000      1.53694000      1.01009000      0.18147700      0.94067400     -0.06330200
Fe       9.05510000      3.83159000      0.91255000     -0.22021500      0.10914000      0.50630300
Fe       3.99908000      1.72149000      2.31168000     -0.36017500     -0.23141300      0.95972000
Fe       6.61746000      8.23305000      2.40717000     -0.70062800      0.88695600     -1.68317100
Fe       5.97239000      1.68794000      3.94137000      0.96136100      0.24274200     -0.55453300
Fe       9.15650000      4.16838000      3.79603000     -0.89096400     -1.51777300      0.24214500
Fe       3.62916000      6.12404000      5.07023000      0.40272100     -0.72180700      0.72629400
Fe       6.91840000      3.99338000      5.22763000     -0.19758200     -1.39686000     -0.72507200
Fe       5.89542000      5.94405000      0.94758000     -0.23970400      0.38917600      0.59572900
Fe       8.81851000      8.41255000      0.81481000     -0.28994400     -0.65787800      0.20714400
Fe       3.53921000      6.20580000      2.05392000      0.05362700     -0.09265800      1.15996700
Fe       6.74968000      3.78342000      2.48397000     -1.05712700      0.85735700     -1.37343600
Fe       5.75343000      6.13998000      3.58884000      0.19224300     -0.26183300     -0.40256400
Fe       8.88891000      8.22179000      3.69142000      0.03142100      0.72061700      0.06601100
Fe       8.54597000      1.77595000      5.04853000     -1.13854500      0.25712500      0.35680000
Fe       1.89184000      8.20519000      5.02730000      0.72213400     -0.16965100      0.72163800
Fe       1.54316000      1.64308000      1.10124000      0.52878000     -0.51297800     -0.35788200
Fe       4.38296000      3.92594000      0.86198000      0.45190000     -0.70255300     -0.46180100
Fe       8.27515000      1.59637000      2.24471000      0.17334700      0.51946200      0.92405200
Fe       1.84663000      8.16512000      2.29489000      0.52629900      0.42389700     -0.27464000
Fe       1.37570000      1.46320000      3.81891000      2.05923300      1.10265400     -0.88911900
Fe       4.46865000      3.83671000      3.73760000      1.06036900      0.61876700      0.23896200
Fe       8.22345000      5.96654000      5.20375000      0.03578600      1.20379300     -1.05666000
Fe       2.11802000      3.64733000      5.08800000     -0.18605300      1.10526900      0.51313000
Fe       1.39395000      6.10748000      0.93499000      0.13563500     -0.47265400     -0.86222400
Fe       4.25098000      8.25475000      1.05199000     -0.31461000      0.18950700     -0.61410500
Fe       8.12812000      6.09835000      2.38581000      0.16552800      0.04904300     -0.41177400
Fe       2.38005000      3.75930000      2.19610000     -0.11353300     -0.53441200      0.62434500
Fe       1.39304000      6.06370000      3.58005000     -0.00298200      0.03570800      0.96570400
Fe       4.26550000      8.36245000      3.74396000      0.37429200      0.13626600     -0.25238200
40
Lattice="9.113454476 -0.000033066 0.002702991 0.322138120 8.678941387 0.240710477 0.000049795 -0.004116600 5.392413720" Properties=species:S:1:pos:R:3:forces:R:3 stress="0.0063161263154459 0.0007003846992815 -0.0084966724087177 0.0007003846992815 0.0115177500460289 0.0151997972528165 -0.0084966724087177 0.0151997972528165 -0.0103218144922715" energy=-337.1141040000 pbc="T T T" step=3200
C        2.89463000      2.37297000      3.77449000      1.05090300      2.33352300     -1.39126200
C        0.89058000      5.05989000      2.63798000     -1.52665800     -1.41353800     -0.97242200
C        2.92575000      7.04054000      3.85602000      0.44940700     -0.15312800      1.48048100
C        7.56395000      2.52932000      3.77317000      0.03086500      1.61551000     -0.22107000
C        5.27870000      4.78216000      5.13831000     -0.31937100      1.21354800      0.47499700
C        7.60661000      7.25051000      1.20967000     -0.37137100     -1.91932100     -0.30540800
C        5.15901000      4.83096000      2.42246000     -1.20275900     -0.59869200      0.37382100
C        7.55993000      7.21809000      3.83635000     -0.22242100     -1.34911600      0.69709700
Fe       3.49648000      1.40860000      5.15311000      1.58203700     -0.44971500      0.55060200
Fe       6.74031000      8.16414000      5.27822000     -0.21650700      0.33958000     -0.66791800
Fe       5.84443000      1.53502000      0.92737000      0.45027600      0.53357600      0.25064100
Fe       9.24484000      3.71613000      0.84743000     -0.53262800      0.76037400      0.99222200
Fe       3.78951000      1.40225000      2.23233000     -0.33255000      0.51045900      1.43325000
Fe       6.74781000      8.24962000      2.54596000     -0.47399400      0.15368000     -0.17205800
Fe       5.94115000      1.58873000      3.74316000     -0.57755200     -0.35701700     -0.28025500
Fe       9.00921000      3.91479000      3.78956000     -0.26952000     -0.94215600     -0.06823100
Fe       3.58966000      5.94804000      5.30726000      0.99042000     -0.52130000     -0.26827800
Fe       6.76010000      3.66910000      5.09188000      0.65805400     -0.06274000      0.41791800
Fe       5.95819000      5.86819000      1.14835000      0.54408900      0.77738000     -0.73078200
Fe       9.19409000      8.22934000      1.31537000      0.23019500     -0.06447200     -0.42141300
Fe       3.49959000      5.98073000      2.43616000      1.57997200     -0.99945600     -0.25797500
Fe       6.77523000      3.78749000      2.36805000      0.46621000     -0.68936000      0.14243200
Fe       5.91817000      5.92117000      3.74380000      0.53212600      0.37115300      0.71828300
Fe       9.12242000      8.34125000      3.88152000      0.08027300     -0.92052800      0.33706000
Fe       8.32147000      1.54654000      5.21959000     -0.28924700      0.30679700     -0.14474600
Fe       2.19151000      8.08859000      5.36380000     -0.06203300      0.57456400     -0.32931900
Fe       1.49696000      1.61130000      1.18977000     -0.34622100     -0.07667900      0.07060300
Fe       4.42286000      3.64625000      1.00980000      0.14778800      0.29372200      1.37183900
Fe       8.30403000      1.57609000      2.35911000     -0.01710500      0.33775200     -0.24717000
Fe       2.21895000      8.14297000      2.59819000     -0.54112100      1.09616100     -0.68741100
Fe       1.31598000      1.57960000      3.99299000     -1.34521400     -0.43703600     -0.56886800
Fe       4.24392000      3.86990000      3.92455000      1.44252400     -1.11367400     -2.07843700
Fe       8.19705000      5.97531000      5.18006000      0.25374800      0.16176500      0.36516600
Fe       2.24019000      3.78238000      5.13943000     -0.56787600     -0.19644300      0.49069800
Fe       1.47604000      6.03761000      1.22516000     -0.28549400      0.07127500     -0.81680700
Fe       4.43551000      7.93798000      1.07972000      0.37340100      0.56830000      0.66818800
Fe       8.28499000      6.01935000      2.50927000      0.00669800      0.08264600      0.00451700
Fe       2.26846000      3.75814000      2.52326000     -0.57394500     -0.70617700     -0.69938400
Fe       1.44273000      5.96561000      4.10619000     -0.99598500      0.02050300      0.41983400
Fe       4.56803000      7.96309000      3.86213000      0.20058700      0.84827900      0.06956900
40
Lattice="9.301535955 -0.218732153 -0.094898525 0.321865374 8.671862365 -0.025457210 0.000050513 -0.004175941 5.470145728" Properties=species:S:1:pos:R:3:forces:R:3 stress="0.0434742952317953 -0.0005074971028444 0.0045154821550094 -0.0005074971028444 0.0277336961837130 -0.0050253073407386 0.0045154821550094 -0.0050253073407386 0.0234378839405793" energy=-336.0310030000 pbc="T T T" step=3400
C        3.03725000      2.70485000      3.65455000     -1.45661200      0.77088200      0.36843100
C        0.51550000      5.06476000      2.12152000     -0.09022600     -0.53274900      1.20629400
C        2.84692000      7.33786000      3.68084000      0.99258700     -1.18364700     -0.07245400
C        7.56954000      2.63434000      3.57470000      0.37803600     -0.22263100     -0.57700900
C        5.25654000      4.82484000      4.82699000     -0.93989600      1.16872500      2.13039500
C        7.68115000      6.93967000      0.68992000     -0.94597900      0.40229900      0.49252000
C        5.35679000      5.07477000      2.09650000     -0.72112700     -1.89903500      0.89395600
C        7.62835000      7.15378000      3.57840000     -0.66773200     -1.37630200     -0.61734800
Fe       3.73738000      1.60342000      5.06461000      0.19863200      0.00501600      0.41118700
Fe       6.85311000      8.23113000      4.93943000      0.12875300     -0.68952600     -0.15352400
Fe       6.01021000      1.66500000      0.92892000     -0.47352900      0.04618200     -0.16764200
Fe       8.94743000      3.61299000      0.89409000     -0.09522400      0.29512300     -0.55365500
Fe       3.66272000      1.63132000      2.37709000      0.92738600     -0.59727900     -1.83359100
Fe       6.93047000      8.10366000      2.04234000     -1.06597500      0.56564600      0.89216200
Fe       5.93227000      1.52406000      3.56548000     -0.22793100      0.24295900     -0.24605300
Fe       9.36967000      3.53200000      3.77978000     -1.05233500      0.55844600     -0.13623400
Fe       3.64560000      6.03528000      5.18627000     -0.20057600      0.27700400     -1.47093200
Fe       6.67155000      3.67060000      4.83533000      1.06625200     -0.08163100      1.41175500
Fe       5.89935000      6.07214000      0.73234000      0.98719600     -0.02762000     -0.89747700
Fe       9.11540000      8.18354000      0.90535000      1.61439900     -0.00634200     -0.66165700
Fe       3.73733000      6.06115000      2.39264000     -0.86162300      0.72414900     -0.38574300
Fe       6.94277000      3.82647000      2.27134000     -0.72428400      0.22540200     -0.76206200
Fe       5.99314000      5.95682000      3.55173000      1.30066500      1.19457900      0.42513600
Fe       9.14079000      8.20729000      3.57308000      1.13237000     -0.05662300      0.05346600
Fe       8.07114000      1.46599000      4.94334000      1.28817400      0.16669800      0.30489700
Fe       2.12264000      8.30664000      5.11509000     -0.27480000     -0.14394400     -0.53037800
Fe       1.20996000      1.89827000      0.75664000     -0.06258000     -0.91913700      0.09448000
Fe       4.34748000      3.83780000      0.97519000      0.66959400      0.22203600     -0.97111900
Fe       8.27568000      1.49987000      2.11567000      0.08433700      0.49801300      0.63771500
Fe       2.42711000      8.36111000      2.12004000     -1.17743000     -0.48752300      0.77031400
Fe       1.37995000      1.58597000      3.53909000     -0.50047900      0.38827100      0.29205400
Fe       4.48668000      3.89542000      3.49729000     -0.35964800     -0.65369100     -0.57754400
Fe       8.34222000      5.72610000      4.88421000      0.06757400      0.46357500     -0.43269900
Fe       2.23941000      3.75510000      5.03751000     -0.22102900      0.56886000     -0.11772400
Fe       1.51743000      5.87582000      0.75269000     -0.31842900      0.73319200     -0.14729900
Fe       4.34875000      8.21126000      0.89048000      1.47022000     -0.08651600      0.10887400
Fe       8.30249000      6.00788000      2.15685000      0.71011400     -0.95459700      0.59171300
Fe       1.95757000      3.76554000      2.20876000      1.11177300      0.08134100      0.50682600
Fe       1.44553000      6.03320000      3.52469000     -0.41621600      0.22135300      0.34815700
Fe       4.73673000      8.10341000      3.85132000     -1.27440200      0.09904100     -0.62818900
40
Lattice="9.257477325 -0.380875092 -0.193882696 0.321668784 8.666716094 -0.173997091 0.000048642 -0.004021306 5.267586764" Properties=species:S:1:pos:R:3:forces:R:3 stress="-0.0097656710677008 -0.0031705180890811 -0.0012890963182028 -0.0031705180890811 -0.0045480441078508 0.0007040297405810 -0.0012890963182028 0.0007040297405810 -0.0135837207572208" energy=-335.6398510000 pbc="T T T" step=3600
C        2.72649000      2.82457000      3.23783000      0.12789800     -2.11328200      2.10063500
C        0.50654000      5.20125000      2.22072000      1.23060700     -0.42741200      0.71550700
C        3.07813000      7.24084000      3.40210000      0.21107900      0.64839800     -0.00799000
C        7.44742000      2.58275000      3.23340000     -0.85929900      0.25542800      0.19201800
C        5.36513000      4.70623000      4.57612000     -1.08737900      0.58051200      0.60933500
C        7.58969000      6.85715000      0.61210000     -0.99656000      0.77781900      1.44893900
C        5.10502000      4.95557000      1.96299000      1.31763300     -0.52209800      0.60210400
C        7.68523000      6.86124000      3.38954000     -0.00703100      1.06697300      0.30224100
Fe       3.82992000      1.61414000      4.54208000     -1.06471700      0.26026900     -0.03864400
Fe       6.71627000      8.09021000      4.57710000      0.83174100      0.31408600      0.22745600
Fe       6.01479000      1.60999000      0.75014000     -0.69366900     -0.80683500      0.18294100
Fe       9.17386000      3.60040000      0.66051000     -0.84707800     -0.00696000     -0.13509000
Fe       3.54052000      1.79951000      1.73573000     -0.57718900     -0.37315900      0.52987500
Fe       6.91869000      7.98966000      2.03310000     -0.60598900      0.81175700     -0.79079000
Fe       5.79799000      1.46473000      3.24519000      0.59532800      0.73929500     -0.28094100
Fe       9.04025000      3.54107000      3.44175000      0.96097500      1.12777700     -0.37411500
Fe       3.59439000      5.79256000      4.59511000      0.50740300      0.73645100      0.39983700
Fe       6.76682000      3.53940000      4.86025000      0.47791700      0.43187100     -0.87016400
Fe       5.89377000      6.06227000      0.62232000     -0.38884300     -1.74558600      0.63352700
Fe       9.02550000      8.01328000      0.67492000      1.85467100      0.62404200     -0.98221200
Fe       3.60344000      5.99416000      2.04596000     -0.54150800      0.68132100     -0.62342100
Fe       6.92044000      3.83708000      2.02929000     -1.99885500      0.07530700     -0.72319800
Fe       6.07469000      5.99421000      3.39615000     -2.36767900     -1.57889200     -1.01023400
Fe       9.17782000      7.93214000      3.04820000      1.14493300      1.15450900      1.13659700
Fe       7.95594000      1.43170000      4.50569000      1.69226500     -1.52387300      1.88316700
Fe       2.23153000      8.42482000      4.77411000      0.25973500      0.07760600     -0.22722900
Fe       1.11170000      1.85569000      0.88388000      0.04621100     -0.25801800      0.38799600
Fe       4.40838000      3.75905000      0.69536000      0.53795300      0.47333000     -0.26736300
Fe       8.32440000      1.42105000      1.98142000     -0.54853100      0.03812700     -0.51784000
Fe       2.35819000      8.55588000      1.96910000     -0.81410100     -0.99320900      0.49149700
Fe       1.14298000      1.84341000      3.82960000      0.22261500     -0.21757500     -1.43133600
Fe       4.31904000      3.72737000      3.27010000      1.87914700      1.14535200      0.11000000
Fe       8.38320000      5.71488000      4.74998000      0.41490000     -0.54751800     -1.01750500
Fe       2.12510000      3.85174000      4.96681000      0.41926200      0.10989800     -0.56082600
Fe       1.46428000      6.28727000      0.80610000     -0.48927800     -0.28810700      0.48446900
Fe       4.52756000      7.99416000      0.32022000     -0.27384900      0.68769400      0.48877700
Fe       8.21496000      5.71639000      2.08634000      0.42708600      0.54533900     -1.37621500
Fe       1.98807000      4.04866000      2.21364000     -0.00239100      1.07403700     -1.04554400
Fe       1.40646000      6.48715000      3.63329000     -1.32492200     -2.06061100     -1.18426300
Fe       4.58131000      8.32105000      2.88263000      0.32950800     -0.97406300      0.53800500
40
Lattice="9.383596331 -0.234092561 -0.163996375 0.326339196 8.792518166 -0.144150896 0.000048959 -0.004047456 5.301840730" Properties=species:S:1:pos:R:3:forces:R:3 stress="0.0227666658132027 0.0024285399733273 -0.0014889494387671 0.0024285399733273 0.0273298580635773 0.0074872081800689 -0.0014889494387671 0.0074872081800689 0.0025550678452848" energy=-334.9187750000 pbc="T T T" step=3800
C        2.83630000      2.78002000      3.00701000      0.22040200      0.61783000      1.57321100
C        0.84551000      5.21893000      2.29308000     -1.12133300     -0.37536700     -0.92096600
C        3.20426000      7.11571000      3.29166000      1.23103500      1.63854200      0.27139400
C        7.68045000      2.62928000      3.46562000     -0.27474800      1.19178600     -1.60754000
C        5.48260000      4.93009000      4.60763000     -0.77738800      0.59146100     -1.11807600
C        7.57530000      7.17991000      0.60641000      0.58442300      0.02267000      0.27587300
C        5.54636000      5.05611000      2.02050000     -0.49999500     -1.04987200      0.45687500
C        7.72556000      7.18329000      3.12964000      0.70684400     -0.06455000      1.74068500
Fe       3.52919000      1.68184000      4.50725000      0.20541500     -0.00586900      0.10797800
Fe       7.04092000      8.32331000      4.53307000      0.16309300      1.03957200     -0.12126300
Fe       5.88603000      1.95235000      0.59352000      0.36467000     -1.29768800      1.44524200
Fe       9.42492000      3.69001000      0.80569000     -1.44475300      0.28096000     -0.50926900
Fe       3.71087000      1.79811000      1.74852000     -0.03597000     -1.38247100     -0.72466200
Fe       6.84300000      8.25937000      1.91030000      0.80852200      1.13311700      0.07097500
Fe       5.86883000      1.86921000      3.64635000      0.62089600     -0.93546200     -1.61441600
Fe       9.30236000      3.92365000      3.47504000      0.03199500     -0.51996700     -0.19025400
Fe       3.84444000      6.23713000      4.74637000     -0.02936200     -1.27237100      1.06961800
Fe       7.09933000      3.97566000      4.71015000      0.18067500     -0.31963000      0.18818900
Fe       5.99793000      6.10877000      0.60632000      1.61903500      0.74187800      1.30774600
Fe       9.30041000      8.22353000      0.54677000      0.81895900     -0.20849400      0.45142600
Fe       3.79006000      5.82062000      2.06140000     -0.07537100      1.38096600     -0.82232500
Fe       7.00769000      3.73904000      1.95074000     -0.07441300      0.26735000      0.48074400
Fe       6.03371000      6.25997000      3.45044000      0.80888400     -1.17884300     -1.98496200
Fe       9.54007000      8.25367000      3.24979000     -0.33987700     -0.28539300      0.11774700
Fe       8.43197000      1.61715000      4.75334000     -0.38789600     -0.51666700      0.05867300
Fe       2.52712000      8.47142000      4.67450000     -0.53494700     -0.15135300      0.44235500
Fe       1.12426000      1.65290000      0.59950000      1.10207100      0.08496800     -0.12740100
Fe       4.66656000      4.05239000      0.59149000     -1.20601700     -2.13512600      1.25724300
Fe       8.37403000      1.44563000      1.95422000     -0.89505700      0.85927000      0.79585900
Fe       2.49370000      8.19898000      2.00295000     -0.64280600      1.40841100     -1.39653600
Fe       1.20720000      1.89935000      3.19644000     -0.30330600     -0.93719500      0.00804500
Fe       4.43332000      3.86251000      3.30683000      1.19220300      0.20608500     -0.27423300
Fe       8.40242000      6.12492000      4.67252000      0.87406700     -0.80945800     -1.42818000
Fe       2.23121000      3.86703000      4.66392000      0.08261300      0.33887800     -0.47246100
Fe       1.44294000      6.21241000      0.70541000     -0.20402500      0.19238800      0.05075900
Fe       4.81090000      8.21761000      0.65817000     -0.81788400      1.01022100     -0.11254600
Fe       8.36952000      5.88967000      1.92576000      0.82797000      0.20676000      0.00548700
Fe       2.20813000      3.96582000      1.67739000      1.02407700      0.14178300      1.47529600
Fe       1.69125000      6.25358000      3.56963000     -3.00466500     -0.99564200      0.05276200
Fe       4.82682000      8.24820000      3.34541000     -0.79803600      1.08652300     -0.27909200
40
Lattice="9.279535465 -0.349675243 -0.099651569 0.319708490 8.614123622 -0.393914708 0.000049327 -0.004077893 5.341710399" Properties=species:S:1:pos:R:3:forces:R:3 stress="0.0086200420770835 0.0053328389758554 0.0011505410582589 0.0053328389758554 -0.0118719057539320 -0.0173011698034787 0.0011505410582589 -0.0173011698034787 -0.0096922272304216" energy=-335.6086340000 pbc="T T T" step=4000
C        2.86040000      2.76807000      3.29364000     -0.05068100     -0.32826600      0.53637300
C        0.83770000      5.08489000      2.06812000     -1.48256300     -0.97857900     -0.95276400
C        3.12453000      7.10461000      3.17326000     -0.14966700      0.92540000      1.17104200
C        7.46089000      2.50055000      3.16961000      0.87888000     -1.73863500      2.89753800
C        5.47957000      4.77444000      4.55208000     -0.96223500      1.32111800      1.70494800
C        7.63766000      6.68860000      0.55952000      2.29126800      1.62121700     -1.16207900
C        5.43370000      4.89352000      1.95979000     -1.43018400     -0.91105900      0.53996800
C        8.00404000      7.08394000      3.13375000     -0.57981000      0.19201100      2.16032400
Fe       3.56043000      1.56633000      4.55209000     -0.06913000      0.56642000      0.56977100
Fe       6.95107000      8.03099000      4.53662000      0.49683500     -0.33434500     -0.65179200
Fe       5.92819000      1.65725000      0.63089000     -0.39091400     -0.72850600     -0.01877700
Fe       9.18420000      3.64084000      0.51910000     -0.04493500     -0.10702500      0.32535800
Fe       3.59696000      1.53148000      1.84711000     -0.75691400      0.88518700      0.11640700
Fe       7.23428000      7.96916000      1.74897000     -1.53329600      1.56469600      0.97394400
Fe       5.66175000      1.55550000      3.36357000      1.78123000      0.28334500     -0.47402600
Fe       9.05034000      3.67205000      3.29101000      1.00579500     -0.26620500     -0.01675900
Fe       3.91715000      6.03578000      4.62189000     -0.04752600     -0.44431600     -0.23475500
Fe       6.94971000      3.70797000      4.61992000      0.71634800     -1.61733700      0.21058200
Fe       6.23070000      5.66746000      0.54455000     -1.29647200      0.88668300      0.81557400
Fe       9.30884000      8.03156000      0.34509000      0.91827200     -0.82584900      0.58526400
Fe       3.68952000      6.11322000      1.77277000      1.13369700     -1.40693000     -0.90929400
Fe       6.94837000      3.60130000      1.98760000     -1.26015600      2.05401100     -2.65772100
Fe       6.36396000      5.81770000      3.21874000     -0.66079800      1.02750300      0.20863000
Fe       0.41458000      8.39072000      3.39588000     -1.16561200     -0.63976700      0.24963400
Fe       8.06595000      1.45430000      4.75531000      0.56435600      0.43631800     -1.06291400
Fe       2.72848000      8.21138000      4.77553000     -1.41993200     -0.09603000     -0.15511200
Fe       1.22359000      1.80214000      0.71638000     -0.13839800     -0.57006400     -0.66231100
Fe       4.59487000      3.62977000      0.86034000     -0.24388100      0.69042600     -1.28335200
Fe       8.19006000      1.38567000      1.81455000     -0.18185000      0.31528900      0.59758700
Fe       2.28662000      8.36901000      1.88912000      0.48893300     -0.62671900      0.08936000
Fe       0.96377000      1.87567000      3.27428000      1.69846100      0.38338300      0.11344300
Fe       4.56832000      3.82227000      3.46504000     -1.67846800     -1.54877600     -2.80094300
Fe       8.50911000      5.79863000      4.50558000      0.65627600     -0.05200600      0.63147400
Fe       2.29993000      3.81811000      4.95209000      0.18231800      0.31736800     -1.16924100
Fe       1.44189000      6.16964000      0.62648000      0.53007600      0.07808700     -0.62769800
Fe       4.83481000      8.05453000      0.49493000      0.40006900      0.32278800      0.34465400
Fe       8.53703000      5.80193000      2.01369000      0.48407100     -0.69918400     -2.07547800
Fe       2.16055000      3.81385000      1.96229000      0.69728800      0.13655100      0.37521700
Fe       1.57760000      6.03519000      3.37994000      0.47980100      0.94721200      1.36184900
Fe       4.74322000      8.19585000      3.02415000      0.13944900     -1.03541300      0.33607500
40
Lattice="9.204269583 -0.255867607 -0.461721241 0.317808672 8.562783602 -0.241484809 0.000050637 -0.004186235 5.483630448" Properties=species:S:1:pos:R:3:forces:R:3 stress="0.0092374396717110 0.0071935139705701 -0.0017018161057515 0.0071935139705701 -0.0031068983870851 -0.0003739537746872 -0.0017018161057515 -0.0003739537746872 0.0310443111854794" energy=-335.6480270000 pbc="T T T" step=4200
C        2.97267000      2.62952000      3.29030000     -0.62902700     -0.36007500      0.06654500
C        0.67931000      5.04196000      2.08401000     -0.00070100     -0.45201400      1.56914500
C        3.00145000      7.05341000      3.36898000      0.10791800      0.30372500      0.89517500
C        7.46214000      2.57114000      3.29549000      0.02088800      0.45585300     -0.89625300
C        5.28877000      4.72052000      4.68657000      0.15375200      0.23895800     -1.77775600
C        7.69761000      6.82472000      0.30110000     -0.36761400      0.21584800      1.26887800
C        5.07858000      4.93698000      1.76458000      0.48828800      0.13299300      0.98039400
C        7.86589000      6.87817000      3.03365000     -1.35416800     -1.00788700      0.99237200
Fe       3.71312000      1.57643000      4.70867000      0.02118500      0.33892200     -0.15101400
Fe       7.13177000      7.99018000      4.49804000     -1.07748000      0.46937400     -0.93711200
Fe       6.17097000      1.40030000      0.78041000     -1.36800000      0.23820500     -2.16426400
Fe       9.26117000      3.48919000      0.42136000     -1.13379000     -0.34355200     -0.20055200
Fe       3.57713000      1.48868000      1.77488000     -0.04121500      0.72874500      0.40352200
Fe       7.06693000      7.91766000      1.73582000     -0.38295100      0.61295700      0.12094000
Fe       5.80911000      1.43255000      3.07149000      0.31483800      0.29074000      1.13414900
Fe       9.21451000      3.82663000      3.28723000     -1.19942900     -1.38614300     -0.65954700
Fe       3.40457000      5.56372000      4.74761000      1.71760400      2.60730800     -0.52818200
Fe       6.97354000      3.56258000      4.87729000     -1.02862500      0.38686800     -0.49328000
Fe       5.98217000      5.92678000      0.48481000     -0.40518500     -0.80455700     -1.02454100
Fe       9.26180000      7.97941000      0.33205000      0.90159200      0.39764200      0.43025600
Fe       3.54795000      6.10733000      1.81491000      0.23247100     -0.73577500      0.00079300
Fe       6.55193000      3.63147000      1.80335000      1.05329400     -0.01655000      1.24502300
Fe       6.06676000      5.89552000      3.23234000     -0.63678700     -0.35736600     -0.08460900
Fe       9.35125000      7.93121000      3.13597000      0.95135300      0.85421700      0.10009500
Fe       8.21599000      1.44868000      4.57422000      0.22911200     -0.13520100     -0.44313900
Fe       2.47296000      8.16955000      5.10445000      0.02013600     -1.38919300     -1.54675700
Fe       1.29257000      1.66485000      0.48959000     -0.22486800      0.33815000      0.49511200
Fe       4.38079000      3.73457000      0.46322000      0.28690400     -0.87980700      0.34315200
Fe       8.26343000      1.69157000      1.71151000      0.35222900     -0.54601700      0.80749500
Fe       2.39526000      8.23487000      1.91876000     -0.56687100     -0.53672800      1.38499600
Fe       1.26039000      1.58396000      3.32498000      0.23283300      0.78349100     -0.14879800
Fe       4.32588000      3.95480000      3.11213000      1.14288800     -1.28846600      1.88716100
Fe       8.20520000      5.63506000      4.50289000      1.15453500      0.08829200     -1.00203600
Fe       2.10022000      3.74487000      4.74031000      0.24912000     -1.22252100     -0.07525600
Fe       1.34102000      5.80149000      0.53923000     -0.00701500      1.42349700     -0.35877300
Fe       4.72787000      7.86708000      0.68309000      0.35153800      1.41283900      0.16327200
Fe       8.17009000      5.61720000      1.65116000      1.10481500     -0.08492100      0.41773300
Fe       2.22271000      3.83620000      2.01923000     -0.61256700     -0.22212700     -0.30100000
Fe       1.39112000      6.12694000      3.53940000     -0.49664900     -0.07658800     -0.94281900
Fe       4.64973000      7.99938000      3.69669000      0.44565000     -0.47313500     -0.97052100
40
Lattice="9.178539205 -0.360365391 -0.535366566 0.327247736 8.816970575 -0.118588035 0.000049058 -0.004055628 5.312545428" Properties=species:S:1:pos:R:3:forces:R:3 stress="0.0033507291805880 0.0104256856862887 -0.0050609151500084 0.0104256856862887 0.0381698738467559 0.0079872217135330 -0.0050609151500084 0.0079872217135330 0.0079146828950696" energy=-336.9402990000 pbc="T T T" step=4400
C        2.97576000      2.56551000      3.26045000     -0.45288800     -0.00604500      1.04933900
C        0.80834000      4.77455000      2.28840000     -1.05679300      1.80668600      0.60414400
C        3.34963000      6.79104000      3.62948000      0.24192500      2.22655600     -0.81397700
C        7.52595000      2.32599000      2.99297000      1.22245200      0.28946900     -0.03271000
C        5.49164000      4.69564000      4.75523000      0.04977100     -0.44425200      0.15779200
C        7.92716000      6.88612000      0.54378000     -0.68130900      0.66851700      0.38481600
C        5.36672000      4.80462000      2.07761000     -0.87559800     -0.02525900     -0.94964300
C        7.96064000      6.85936000      3.23271000     -0.62609100     -0.24755800      0.13509300
Fe       3.75919000      1.35173000      4.51004000     -0.93714200      0.56375700      0.55565600
Fe       6.98642000      7.91285000      4.62112000      1.10679200      0.72185400     -0.99166700
Fe       5.89076000      1.38225000      0.22540000      0.42177400      0.05115400      0.08636600
Fe       9.29265000      3.35563000      0.39243000     -1.20016600     -0.12894900     -0.44705600
Fe       3.63909000      1.38267000      1.94601000     -0.12499300      0.06853500     -1.31717800
Fe       7.24052000      7.98666000      1.91971000     -0.34987300      0.82323700      0.60225100
Fe       5.86097000      1.51777000      2.86239000     -0.01076100     -1.09951500      0.03554600
Fe       9.03548000      3.61624000      3.16670000      0.64622600     -1.16563000     -0.02041400
Fe       3.82421000      5.63861000      4.94985000      0.73888700      0.12089900     -0.22174900
Fe       7.04515000      3.45600000      4.50476000     -0.97357400      0.04221100      1.00073200
Fe       6.12175000      5.97494000      0.79657000      0.41556700     -0.82869200     -1.43545700
Fe       0.42263000      8.31090000      1.28722000     -0.46815300      0.13958100     -0.90433000
Fe       3.88001000      6.06514000      1.93039000     -0.11334000     -0.33432000      0.72292700
Fe       6.84314000      3.67586000      1.82710000      1.01847100     -0.70810800     -0.43479600
Fe       6.27796000      5.74996000      3.34929000      0.15641900      0.64249900      0.89895900
Fe       0.50897000      8.07712000      3.93722000     -0.55362200      0.20246200      0.13885000
Fe       8.49156000      1.12542000      4.18284000     -0.98306700      0.29332100     -0.27599800
Fe       2.68048000      8.01677000     -0.23289000     -0.03514700      0.27723400     -0.31598300
Fe       1.38856000      1.69620000      0.59973000      0.40529600     -1.38547600      0.08040900
Fe       4.57014000      3.48836000      0.80679000      0.40269700      0.37722700     -0.80187800
Fe       8.17306000      1.32179000      1.31314000     -0.34514700      0.41616100      0.91974200
Fe       2.51353000      8.16728000      2.24585000      1.11607700     -0.75711400      0.45145000
Fe       1.33818000      1.30359000      3.21642000      0.07923600      1.51984500      0.33552300
Fe       4.57473000      3.70013000      3.33739000      0.03516100     -0.67478100      1.10582900
Fe       8.56196000      5.70285000      4.61388000      0.14351100     -0.60435700     -1.32307300
Fe       2.25673000      3.76728000      4.82292000      0.35265400     -0.93521300     -0.70170300
Fe       1.56180000      5.88466000      0.91092000      0.26751800      0.91976400     -0.65602500
Fe       4.93568000      8.16534000      0.61123000     -0.43998000     -0.12900000      1.39338400
Fe       8.45655000      5.67922000      1.78662000      0.92224100     -0.61390100      1.61283800
Fe       2.30100000      3.82633000      2.09202000      1.48624600     -1.31030300     -0.24882400
Fe       1.75629000      5.89087000      3.60545000     -1.42438500     -0.03831900     -0.20950200
Fe       4.80360000      8.16618000      3.36669000      0.42310800     -0.73417700     -0.16968300
40
Lattice="9.225103717 -0.574981659 -0.227142258 0.329305644 8.872676072 -0.375910176 0.000048238 -0.003987862 5.223777587" Properties=species:S:1:pos:R:3:forces:R:3 stress="0.0031132834508683 0.0099583776603747 0.0168879194876587 0.0099583776603747 0.0406679879217362 0.0040563941965465 0.0168879194876587 0.0040563941965465 -0.0217867488885124" energy=-336.4904850000 pbc="T T T" step=4600
C        3.11775000      2.31394000      3.05886000     -1.29188100      1.62911900      0.80854000
C        0.85982000      4.83373000      1.98193000     -0.15027600      1.42109100      1.48293100
C        3.29128000      6.98992000      3.39584000      1.06754900     -1.01122000     -2.59892300
C        7.50195000      2.20928000      3.19866000      0.41518300      0.22712300      0.29165400
C        5.54015000      4.57137000      4.35722000     -0.16672100     -1.40368600      1.60774400
C        8.07886000      6.68053000      0.64569000     -0.85454900      0.40520400     -0.71782000
C        5.40076000      4.67965000      1.83635000     -1.78463700     -0.13462900     -0.37752500
C        7.86584000      6.73759000      3.23859000      0.17838300     -0.83294300     -0.95632400
Fe       3.61050000      1.31466000      4.47744000      0.41949800     -0.74867700     -0.07360800
Fe       7.29676000      7.82206000      4.54747000     -0.28224500      0.88359000      1.04001000
Fe       5.82285000      1.15287000      0.43121000     -0.15598100     -0.15128200     -0.13001900
Fe       9.26020000      3.24303000      0.50599000     -0.47086200     -1.45168700     -0.28372800
Fe       3.48795000      1.38863000      1.56111000      0.70204900     -0.46828600     -0.18165600
Fe       7.14082000      7.82503000      1.86508000      0.90637800      0.02286500      0.39117400
Fe       5.86033000      1.19498000      2.98072000     -0.47674700     -0.24976300      0.74407900
Fe       9.22647000      3.23567000      3.18035000     -0.12936300     -0.22227100      0.27138800
Fe       3.92286000      5.64726000      4.53504000     -0.57916000      0.02458600      0.14031500
Fe       7.09087000      3.24497000      4.85896000     -0.77863000      0.14954800     -1.31906900
Fe       6.21519000      5.65785000      0.54674000      0.85278900      0.73052500     -0.59746400
Fe       0.54182000      8.36705000      0.78919000     -0.90086700     -0.14465200      1.52387000
Fe       3.67208000      5.74043000      1.70931000      0.82280500      0.71743400      0.64308100
Fe       6.80992000      3.51564000      2.00677000      2.08304100     -0.71620400     -0.36800600
Fe       5.93245000      5.84158000      3.16735000      2.30181900      0.81424900     -0.91207400
Fe       0.45317000      8.28201000      3.76251000     -0.14272100      0.13087000     -1.87279700
Fe       8.31994000      1.03442000      4.46358000     -0.24257200     -0.11519900     -0.47528000
Fe       2.78871000      8.02228000      4.69778000     -1.18170800      1.89969900      2.58154200
Fe       1.27538000      1.59038000      0.58115000     -0.24526100     -0.42239000     -0.50593200
Fe       4.63609000      3.46086000      0.49596000      0.23991600      0.24574000      0.05212800
Fe       7.85935000      1.11148000      1.63430000      1.91982300      0.23465800     -0.12091200
Fe       2.66975000      8.30444000      2.02945000     -0.17091100     -0.68811600      0.41506900
Fe       1.22911000      1.56282000      3.10710000      0.12610000     -0.23043600      0.08488100
Fe       4.70344000      3.41410000      3.06861000     -0.80585500      0.12849600      1.07825500
Fe       8.57366000      5.48505000      4.46349000     -0.75150300     -0.21256600      0.19429000
Fe       2.41109000      3.60270000      4.62409000     -0.13652700     -0.14034900     -0.03195500
Fe       1.48706000      5.76306000      0.40498000      0.78036300      0.84703100      0.62521100
Fe       4.93808000      7.88599000      1.03180000     -0.05384500      0.36679100     -0.56133800
Fe       8.57826000      5.48704000      1.91895000     -0.41882800     -0.02382000      0.27247600
Fe       2.35865000      3.75408000      2.04010000      0.08612400     -0.58183800     -0.41175300
Fe       1.60628000      6.13061000      3.30984000     -0.03918900     -0.93115500     -0.96429800
Fe       5.05877000      7.98787000      3.72304000     -0.69098000      0.00255200     -0.78815800
40
Lattice="9.224382393 -0.729276631 -0.376403584 0.324698300 8.748698306 -0.529330262 0.000048604 -0.004018109 5.263398086" Properties=species:S:1:pos:R:3:forces:R:3 stress="0.0037892264006142 0.0070059566228826 0.0051157842562819 0.0070059566228826 0.0170927782985006 0.0069527415165137 0.0051157842562819 0.0069527415165137 -0.0103527786187899" energy=-336.5930900000 pbc="T T T" step=4800
C        2.97160000      2.53171000      2.82849000     -1.26678300     -1.41897900      0.97759800
C        1.02192000      4.76088000      1.81152000     -0.82283500      1.03739300      0.45843000
C        3.39069000      6.99145000      3.22239000      0.91995100     -0.32913000      0.26062800
C        7.44419000      2.16105000      2.79635000      0.20629700     -0.16597900     -0.49186200
C        5.30740000      4.40104000      4.37984000      1.26298300      0.36978600     -0.31242000
C        7.95878000      6.48303000      0.34511000     -0.30612700      0.99702900     -0.84433900
C        5.35942000      4.54725000      1.83287000      0.35412500      0.75258100     -2.79012200
C        8.01958000      6.40655000      2.85031000     -0.04861400      1.17048000      1.10795500
Fe       3.59594000      1.37940000      4.37891000     -0.06106400      0.15324500     -0.93504300
Fe       7.32044000      7.80197000      4.13472000      0.44428700     -1.91025300      1.92473800
Fe       5.96811000      1.14489000      0.14382000     -0.98118000      0.35995400     -0.63744400
Fe       9.17947000      2.91433000      0.24576000      0.05308400      0.30944300     -1.38436900
Fe       3.48359000      1.26248000      1.55592000     -0.02830800     -0.02502500      0.23837000
Fe       7.18552000      7.78516000      1.76177000      0.85061700     -1.46606100     -1.91634800
Fe       5.76536000      1.16340000      2.53150000      0.17094700      0.90229800      1.15372400
Fe       9.20390000      3.02364000      2.65429000      0.06040700     -0.18201800      1.76752000
Fe       3.88946000      5.62863000      4.58229000     -0.19492600      1.00053000     -0.42755500
Fe       6.95541000      3.24752000      4.30254000     -0.12661300     -0.37624400      0.04807000
Fe       6.31086000      5.48447000      0.32946000     -0.66420900      0.71083200      0.87686700
Fe       0.52642000      8.15324000      0.64758000     -1.09800100      0.00845000      0.03204000
Fe       4.05588000      5.95996000      1.85739000      0.28835300     -0.73033800     -1.35365500
Fe       6.92508000      3.47305000      1.55315000     -0.37439900     -1.27045800      0.04663400
Fe       6.35639000      5.45779000      3.10851000     -0.69860300      0.56336400     -0.37281400
Fe       0.55084000      8.18550000      3.31625000     -1.13281700     -0.59621800      0.39387200
Fe       8.14696000      0.87356000      3.92660000      0.49795400      0.58870100      0.19119000
Fe       2.90682000      8.12607000      4.55201000     -1.73953800      0.06587400      0.94014800
Fe       1.10530000      1.50103000      0.29128000      0.70365700     -0.09279100     -0.09780000
Fe       4.40873000      3.36089000      0.32875000      1.74801000     -0.02478400      1.05370600
Fe       8.05764000      0.95097000      1.23980000      0.46848900      0.31669200      0.52689700
Fe       2.53207000      8.04563000      1.87745000      0.86353300      0.64920400     -0.65546000
Fe       1.03555000      1.46674000      2.96313000      1.60033000      0.72890300     -0.55602000
Fe       4.53167000      3.46666000      2.95365000      0.98625400     -0.66829400      0.92288500
Fe       8.59932000      5.29731000      4.24706000      0.23460200     -0.10311400     -0.13971800
Fe       2.35420000      3.67282000      4.19237000     -1.36751300      0.10214400      0.25852200
Fe       1.54404000      5.80101000      0.34115000      0.81047700      0.73746100      0.03441700
Fe       4.90888000      8.00124000      0.49871000      0.95320900     -0.87181200      0.21087700
Fe       8.57323000      5.22715000      1.57478000      1.02446600      0.14385800     -0.19173900
Fe       2.40973000      3.58523000      1.42743000     -0.84338400      0.31682300      0.19347800
Fe       1.80398000      6.01531000      3.12497000     -1.52054000     -1.27292100     -0.24089200
Fe       5.15034000      7.98401000      3.19740000     -1.22657800     -0.48062400     -0.27096600
40
Lattice="9.177649898 -0.727023999 -0.139276328 0.320199535 8.627905121 -0.938823513 0.000049469 -0.004089664 5.357130594" Properties=species:S:1:pos:R:3:forces:R:3 stress="-0.0109210430539833 0.0115658034243932 0.0089841405089422 0.0115658034243932 -0.0039521360289667 0.0045420272931031 0.0089841405089422 0.0045420272931031 -0.0020917731097057" energy=-335.2424890000 pbc="T T T" step=5000
C        2.72909000      2.36663000      2.71593000      1.58780600      1.63290600      0.70227300
C        0.74970000      4.96643000      1.48499000      0.79874800     -1.89530600     -0.81948500
C        3.10943000      6.97009000      2.80535000      1.84476800     -1.24376100      1.39047800
C        7.49204000      2.15102000      2.66537000     -0.44656700     -0.99943300      0.98337000
C        5.19554000      4.65181000      4.07023000      0.30902200     -0.39272300     -1.22278700
C        8.03527000      6.32971000      0.13240000     -0.94621900      1.09915000     -0.14802700
C        5.39489000      4.55535000      1.38572000     -0.05629700     -0.44292300     -0.31720800
C        7.95481000      6.67400000      2.82551000     -0.14028700     -2.88521500     -1.45280700
Fe       3.51248000      1.32636000      4.12108000      0.00400700      0.83050800      0.09165700
Fe       7.19204000      7.73909000      3.97455000     -0.63571700      0.01703200      2.64719400
Fe       5.88620000      1.23446000     -0.12147000     -0.95320100      0.00766000      0.81902000
Fe       9.25853000      3.03187000     -0.02411000     -1.01336700      0.24620400      0.21772100
Fe       3.52654000      1.54537000      1.24154000      0.19236300     -0.61194600     -0.45265200
Fe       7.36307000      7.64549000      1.38687000     -0.43525200     -0.31031900     -1.01542900
Fe       5.64076000      1.12842000      2.77364000      1.55450000      0.00591800     -0.56195200
Fe       9.11290000      3.05112000      2.78871000     -0.13908900      0.61008200     -0.43460600
Fe       3.95300000      6.08752000      4.31144000     -1.01976300     -1.24409100     -1.04293900
Fe       6.82646000      3.41122000      4.37999000      0.95846600     -1.23576500     -1.95989300
Fe       6.17035000      5.65715000     -0.03371000      1.09443200      0.39843300      1.41396500
Fe       0.54892000      8.10640000      0.26555000     -0.71865100     -0.63221800      0.84919400
Fe       4.07713000      5.87177000      1.36481000     -1.98108300      0.09330800      1.01091300
Fe       6.53719000      3.03687000      1.39461000      1.68297100      0.54858800     -0.14759800
Fe       6.13670000      5.49384000      2.75349000      1.12414100      1.11803100      0.01295100
Fe       0.49653000      8.03701000      3.18539000      0.69057100      0.77576200     -0.77230800
Fe       8.14850000      0.91198000      4.00580000     -0.32533400      1.03408800     -0.09551500
Fe       2.68164000      8.19141000      4.27325000     -0.04758600     -0.39093400      0.02631900
Fe       1.00727000      1.56493000      0.40902000      1.85892700      0.27780600     -1.55900800
Fe       4.59018000      3.59954000     -0.01158000     -2.27209600     -1.24941000      0.97847300
Fe       8.20210000      0.89808000      1.26397000     -2.02923600      0.89548200      0.74233300
Fe       2.77560000      8.12111000      1.55124000     -1.33983900      1.52237200     -1.80310200
Fe       1.09135000      1.71359000      2.90236000     -0.52235600     -1.83680800      0.37168300
Fe       4.54892000      3.33171000      2.67549000     -0.97286300      0.92833000      1.09240800
Fe       8.39864000      5.23830000      4.04391000      0.81682000      0.25896600      0.41434000
Fe       2.10207000      3.68955000      4.22209000      1.19165400     -0.30096000     -0.44776700
Fe       1.65223000      5.90362000     -0.05396000     -0.22225700      0.23835100      0.52512700
Fe       4.81489000      7.86391000      0.27232000      1.56363500      0.96230000     -0.62676800
Fe       8.38344000      5.12285000      1.53597000     -0.96177800      1.68099000     -0.59729100
Fe       2.30009000      3.76064000      1.45748000     -0.34498800      0.26425400      0.00249100
Fe       1.59779000      5.94507000      2.74984000      0.31753700     -0.04994700      1.05544900
Fe       4.99042000      7.77193000      2.88164000     -0.06654100      0.27523800      0.12978300
40
Lattice="9.277012767 -0.861509452 -0.051397529 0.316304838 8.522884639 -0.852031613 0.000048784 -0.004032985 5.282885555" Properties=species:S:1:pos:R:3:forces:R:3 stress="-0.0009752732419389 -0.0083503714360123 0.0074454400013426 -0.0083503714360123 -0.0243156023956844 0.0088671309383232 0.0074454400013426 0.0088671309383232 -0.0269738174199337" energy=-336.5619810000 pbc="T T T" step=5200
C        2.76513000      2.41724000      2.73695000      1.41251400      0.41205700     -0.44467400
C        0.68822000      4.88434000      1.44617000     -1.26711400     -1.08444600      3.57966200
C        3.26082000      6.74367000      2.81537000     -1.89242400      1.18485400      0.18444900
C        7.40962000      2.18920000      2.74422000     -0.93758500      0.75842500     -0.67585100
C        5.20310000      4.51473000      4.07773000      0.50347000     -0.17328300      1.42703400
C        7.81846000      6.25115000      0.20493000      1.56830400      1.79245900     -0.47056700
C        5.28521000      4.50684000      1.41169000     -0.92932500     -0.29310900      0.48313300
C        7.82764000      6.36068000      2.82050000     -0.12790600     -1.14343400      1.29643300
Fe       3.53935000      1.37190000      4.19450000     -0.40962000     -0.40166300     -0.91042200
Fe       7.08502000      7.53024000      4.27734000      0.88444500     -0.15126900     -1.23053300
Fe       5.85846000      1.09282000      0.07647000     -0.53513800      0.57087400     -0.35461900
Fe       9.12344000      3.00854000      0.14587000     -0.81734000     -1.26237000     -0.85863200
Fe       3.46065000      1.30413000      1.20616000     -0.67366200      1.16225600      1.30096500
Fe       7.24758000      7.49029000      1.58991000     -0.85086700      1.14269000     -1.39730900
Fe       5.57668000      1.17429000      2.59136000      1.63804700      0.40799400      0.27899900
Fe       9.24094000      2.89521000      2.93030000     -0.11655400      1.01751800     -0.60306200
Fe       3.81086000      5.81836000      4.23235000      0.27557000     -1.68480600      0.52585300
Fe       6.85420000      3.27772000      4.24627000     -0.40463700     -0.47817700     -1.43018300
Fe       6.17685000      5.58165000      0.11139000     -2.85431900     -1.41728000      0.33139000
Fe       0.30840000      8.24466000      0.07978000     -0.52038700     -0.92069000      0.77227900
Fe       3.56263000      5.72397000      1.35834000      2.13278500     -1.34397900     -0.41234700
Fe       6.69662000      3.21944000      1.22615000      0.84263900     -0.41731300      1.94756800
Fe       6.07713000      5.43252000      2.78631000      0.50484200      1.06639400     -0.48354800
Fe       9.42708000      7.39356000      2.80697000      0.98542000     -0.44551200     -0.08932900
Fe       8.10234000      1.00783000      3.91097000     -0.44245900     -1.15706500      2.09082000
Fe       2.56620000      7.88878000      4.29540000     -0.39171600      0.49695100     -0.26963500
Fe       0.95300000      1.62095000     -0.06489000      0.81455800      0.24000900      0.17306300
Fe       4.47940000      3.37757000      0.14874000     -0.41102700      0.43572000      0.06002600
Fe       8.13819000      1.02737000      1.44792000     -0.40493100     -0.68477100     -1.28462300
Fe       2.53663000      8.08574000      1.58088000     -0.67639100     -0.98918600     -0.21531600
Fe       1.15379000      1.57809000      2.64840000     -1.13674100     -0.14040900     -0.10649200
Fe       4.51879000      3.33665000      2.88941000     -0.89472000     -0.08641900     -1.94554800
Fe       8.42231000      5.05616000      4.12328000      0.54301700      0.97409700     -0.28995300
Fe       2.20403000      3.52416000      4.16273000     -0.28778700      1.12029400      0.13215800
Fe       1.55469000      5.78042000      0.29613000      0.72488000      2.60579400     -3.30791500
Fe       4.75849000      7.74795000      0.27579000      1.04773800     -0.44337800     -0.77349600
Fe       8.31909000      5.07323000      1.47047000      1.18779200     -0.13542800      0.89020200
Fe       2.12150000      3.57907000      1.31793000      0.53313600     -0.27326000      0.78633900
Fe       1.40618000      6.02947000      2.88877000      0.20915200     -0.35509700      0.28904400
Fe       4.81504000      7.76025000      2.67661000      1.17434300      0.09395600      1.00463900
40
Lattice="9.437742111 -0.797288973 0.015339583 0.319927228 8.620248399 -0.622575992 0.000049244 -0.004071044 5.332739054" Properties=species:S:1:pos:R:3:forces:R:3 stress="0.0181125597416496 -0.0006358038048881 0.0158621898863618 -0.0006358038048881 0.0046884156469355 0.0012901324087092 0.0158621898863618 0.0012901324087092 0.0056462251464841" energy=-335.4563130000 pbc="T T T" step=5400
C        2.79138000      2.63131000      2.84520000      0.12594700      0.58616700     -1.15060800
C        0.64020000      5.03654000      1.49177000      0.88070800     -1.20866100     -0.10287300
C        3.24261000      6.96644000      2.88752000     -1.12605500     -0.75521500     -0.58924200
C        7.51024000      2.28773000      3.04309000     -0.61105200     -1.83967800      0.40262400
C        5.27434000      4.42999000      4.36250000      0.45356800      0.63676100     -0.58037700
C        7.87392000      6.66029000      0.47774000      1.50623800     -0.27319800     -1.26343500
C        5.37679000      4.58626000      1.56272000      0.09862900      0.08204400      1.03353700
C        7.85991000      6.48174000      3.06072000      1.00148000      0.11885100      0.29428400
Fe       3.26177000      1.33919000      3.97295000      1.92795500     -1.14169300      0.92140900
Fe       7.30917000      7.77207000      4.34279000     -0.14193500     -0.27370300      0.69693600
Fe       5.73596000      1.13540000      0.14389000      0.14558000      0.83031300      0.04240400
Fe       9.21093000      3.09570000      0.25412000     -0.30287200      0.44021300     -0.03291600
Fe       3.16697000      1.60502000      0.96723000      0.59771600     -0.35362400      1.18495100
Fe       7.43757000      7.82377000      1.82371000     -0.95507900     -0.35160700     -0.35765400
Fe       5.68439000      1.20807000      2.94344000      0.36191300      0.09686100     -0.32456000
Fe       9.15308000      3.06521000      2.95497000      2.15882000      1.93871300      0.07097300
Fe       3.84377000      5.69174000      4.25528000     -0.30957800      0.10191300      0.13381000
Fe       6.82231000      3.27915000      4.27967000     -0.62658600      1.29989800      2.61848000
Fe       6.30231000      5.72434000      0.31287000     -1.45342000     -0.99856500      0.20627100
Fe       9.73606000      7.54644000      0.38987000     -1.50424400     -0.22954800      0.29443300
Fe       3.82274000      5.80051000      1.45725000      0.12219200     -0.18578600      0.09734000
Fe       6.80316000      3.21557000      1.67709000     -0.64157000      1.71601500     -1.97935800
Fe       6.30558000      5.40409000      3.12450000     -0.63938700      0.57769700     -1.60886300
Fe       9.73387000      7.46945000      3.01612000     -0.62847600     -0.04249000      0.26047600
Fe       8.30826000      1.24015000      4.45847000     -0.95699500     -1.39673000     -0.25947500
Fe       2.53153000      7.93607000      4.33753000      0.41845700      0.88310800     -0.67947300
Fe       0.92085000      1.46072000      5.19840000      0.96100000      1.07696500      1.10678100
Fe       4.59445000      3.37097000      0.34431000     -0.58802500      0.38676100     -0.34213600
Fe       8.15891000      1.19839000      1.80004000      1.24349800     -2.37467600     -2.49041700
Fe       2.43333000      8.20612000      1.45082000      0.89798500     -1.16730600      1.01321800
Fe       1.22575000      1.60000000      2.69538000     -2.26817300      0.24320500     -0.13403700
Fe       4.46358000      3.48435000      2.88691000      0.00070300      0.23749200      0.16731500
Fe       8.74954000      5.42668000      4.36925000     -0.74755300      0.00143700      0.19296000
Fe       2.02006000      3.66895000      4.32063000      0.29713700      0.26971700      0.01149400
Fe       1.53679000      6.20948000      0.09114000     -0.27169200     -1.80150600      0.73616900
Fe       4.77390000      7.99500000      0.37167000      0.29545500     -0.63596000     -0.03688200
Fe       8.70084000      5.36127000      1.69100000     -2.24042600      1.48072400     -0.10039000
Fe       1.97134000      3.66166000      1.52513000      0.37082800      1.25115100     -0.55060300
Fe       1.47801000      6.03314000      2.81726000      1.17158900      0.22055100      0.67898600
Fe       4.89657000      7.74857000      2.96727000      0.97572000      0.55338500      0.41844700
40
Lattice="9.400521272 -0.647013541 -0.260048266 0.316961501 8.540141101 -0.421623687 0.000049002 -0.004051045 5.306541916" Properties=species:S:1:pos:R:3:forces:R:3 stress="0.0042496687665462 -0.0009765028192266 -0.0008059036516944 -0.0009765028192266 -0.0252276491506991 -0.0014746501414775 -0.0008059036516944 -0.0014746501414775 -0.0151568494288751" energy=-334.7892590000 pbc="T T T" step=5600
C        2.48734000      2.57368000      3.08195000      3.33275300      0.65885900     -2.04036700
C        0.43957000      4.97542000      1.68238000      1.23479700      0.01968700     -0.12834700
C        3.07887000      6.90195000      2.98330000     -1.74059700      0.12168100     -0.40654500
C        7.39646000      2.14946000      2.76475000     -1.37805300      0.96154200     -2.07867800
C        5.01856000      4.61611000      4.24144000      2.12205600     -0.88064100     -0.32125400
C        7.74834000      6.69941000      0.11136000     -1.08148900     -1.03991000     -0.50571400
C        5.33048000      4.55533000      1.55065000     -0.67220000      0.03977300      0.93044300
C        7.82879000      6.61674000      2.76788000     -0.97159300     -0.40066000      0.26179400
Fe       3.43906000      1.50247000      4.34602000     -0.24866900     -0.22563800     -0.51580600
Fe       7.23521000      7.82094000      4.02272000     -0.68249000     -0.33005800      0.53526500
Fe       5.65590000      1.18907000      5.06591000     -0.03437000      0.80823800      1.55127400
Fe       8.96911000      3.05603000      0.23094000      1.50606800      1.67384000     -1.25256700
Fe       3.36651000      1.62327000      1.48129000     -0.28189300     -0.93329900      0.55903800
Fe       6.83001000      7.76778000      1.44906000      0.96645100     -1.23783200     -0.47888200
Fe       5.65964000      1.17023000      2.67819000      0.42289400      1.34252000     -0.59609600
Fe       8.95605000      3.27637000      2.74431000      1.14003800      0.46491500      0.25018100
Fe       3.69269000      5.79770000      4.26989000     -0.68053900      0.02333700      1.24447900
Fe       6.85181000      3.34334000      4.21237000     -1.07063800      0.24507500      0.11798800
Fe       6.00378000      5.54997000      0.17003000      1.52518700      1.34147600      0.16645100
Fe       9.34905000      7.65426000      0.17709000      0.64745600     -0.13342400      0.16609800
Fe       3.75556000      5.70694000      1.60614000     -0.38603000      0.28204100      0.02068300
Fe       6.80283000      3.42446000      1.40290000     -0.28624500     -0.44883300      0.56447400
Fe       5.95004000      5.71337000      2.94029000      1.23820200     -0.05923200     -0.49168600
Fe       9.56798000      7.36537000      2.88570000      0.10069700      1.44260100      0.28006600
Fe       8.31893000      1.29534000      3.94981000      1.10175800     -2.67585600      1.15642700
Fe       2.39106000      8.04103000      4.57140000      0.69089300      0.35433000     -2.26719500
Fe       1.06330000      1.41217000      0.41899000      0.02745800      2.11169500     -0.48811200
Fe       4.25593000      3.61405000      0.32938000      0.00859800     -0.88218100     -0.60556900
Fe       7.92658000      1.24919000      0.98516000     -0.67886400     -0.92146500      1.55646200
Fe       2.32024000      7.87524000      1.52392000      0.29446300      1.84015500      2.21557500
Fe       1.12388000      1.51429000      3.04381000     -2.37402000     -1.42428500     -0.51800700
Fe       4.52142000      3.45815000      2.93007000     -1.32879000     -0.51789300     -0.30588800
Fe       8.55230000      5.25655000      4.15418000     -1.21356900      1.03075400     -0.00538100
Fe       1.82771000      3.74435000      4.22720000     -0.40707300      1.02907900      2.00227900
Fe       1.59889000      6.13109000      0.41906000     -1.82355300     -2.52350100      0.74765800
Fe       4.61831000      7.80251000      0.26107000      0.63517600      0.46147600      0.44342700
Fe       8.57471000      5.65840000      1.39278000     -0.84703700     -1.18593600      0.39855800
Fe       1.92789000      3.81296000      1.59517000      0.43486000     -0.43664500      0.41273200
Fe       1.38477000      6.01821000      3.43546000     -0.43827600     -1.10833400     -2.60562700
Fe       4.62903000      7.82206000      2.97201000      1.19618300      1.11254700      0.03036600
40
Lattice="9.303061108 -0.552215864 -0.321127934 0.315422869 8.498771236 -0.505252374 0.000049655 -0.004105054 5.377290098" Properties=species:S:1:pos:R:3:forces:R:3 stress="-0.0046994756010154 -0.0006165612324115 0.0061915645188469 -0.0006165612324115 -0.0199480752132851 0.0018509319990495 0.0061915645188469 0.0018509319990495 0.0083227340338306" energy=-336.8355410000 pbc="T T T" step=5800
C        2.70197000      2.54969000      3.03866000      0.47553500     -0.79596100      0.06663400
C        0.57312000      4.76271000      1.72826000     -1.73886800      1.18207000     -0.29178400
C        2.97125000      6.84785000      2.89316000     -0.84241300     -0.02602500     -0.92022500
C        7.49177000      2.22036000      2.87176000     -1.67477300      0.36980100     -1.07901300
C        5.27822000      4.45815000      4.33815000     -1.85839500      0.09574800      0.84150500
C        7.47816000      6.48481000      0.08837000      1.97795400      0.53363000      1.03521100
C        5.15391000      4.61057000      1.62680000     -0.26464000     -0.68502900      0.45445800
C        7.53820000      6.36682000      2.81519000      1.72691700      0.96343200      1.54158900
Fe       3.34957000      1.44761000      4.49523000      0.15241400     -0.05166700     -1.17512600
Fe       6.86696000      7.68600000      4.21452000      0.21738300     -0.49201200     -0.46599600
Fe       5.60007000      1.19240000      0.27528000     -0.02125200      0.54597000     -0.38069100
Fe       9.03588000      3.11831000     -0.02836000      0.25133500     -0.22323800      1.11595500
Fe       3.25837000      1.35442000      1.46632000      0.01195800      0.96517100      1.11432600
Fe       6.94287000      7.57690000      1.57031000     -0.54128600      0.67610500     -0.62749300
Fe       5.56856000      1.13423000      2.89451000      0.34312800      0.79542100     -0.09881200
Fe       9.06680000      3.19067000      2.74087000     -0.41109500     -0.05183100      0.54240500
Fe       3.52922000      5.61936000      4.20356000      0.48996000     -1.16763800      0.75648400
Fe       6.70370000      3.31884000      4.32019000      0.64528800     -0.94248300     -0.10559500
Fe       5.94703000      5.56185000      0.22840000     -1.09588600     -0.35120300      0.57254200
Fe       9.23783000      7.62604000      0.05047000     -0.04791600     -1.37755100     -0.02739500
Fe       3.66908000      5.81600000      1.40386000     -0.61843200     -0.20325000      0.88218000
Fe       6.66965000      3.36547000      1.54725000      0.18372600     -0.39339000      0.10457900
Fe       5.95294000      5.54560000      3.03990000     -0.77284100      0.11525600     -1.40551200
Fe       9.17441000      7.67286000      2.74323000      0.37966500     -0.50645400      0.52318900
Fe       7.75398000      1.15246000      4.27641000      1.69554600     -0.92502300      0.31197900
Fe       2.46770000      7.77792000      4.45034000     -0.93055600      1.08284000      0.92745000
Fe       1.02418000      1.35536000      0.08341000     -0.55362900      0.95736700      0.11111100
Fe       4.29616000      3.43385000      0.38592000      0.19263000      0.38496200     -0.67777800
Fe       7.91984000      1.02910000      1.36902000     -0.02639000      1.13217900      0.53304200
Fe       2.13019000      7.97444000      1.49074000      0.46895900     -0.38229100      0.79588300
Fe       1.01631000      1.58869000      2.71706000     -0.41233400      0.06552700      0.29926300
Fe       4.42474000      3.50259000      3.06418000     -1.15059700     -1.22604500     -1.21109900
Fe       8.26247000      5.18162000      4.34079000      0.36163600      1.01906600     -1.72296500
Fe       1.76606000      3.62272000      4.34791000      1.07127700      0.29052800      0.85149700
Fe       1.40883000      5.82425000      0.40148000     -0.41679800      0.23242200     -1.22390100
Fe       4.66533000      7.76372000      0.50306000      0.00031500      0.18664400     -0.55145300
Fe       8.26387000      5.33919000      1.47309000      0.21088900     -0.23937900     -0.36301600
Fe       2.12042000      3.89990000      1.89254000      1.18642800     -1.19551200     -1.04260200
Fe       1.15952000      6.18303000      3.00433000      0.32608500     -1.20584000      0.38185900
Fe       4.60347000      7.69134000      3.19803000      1.00907200      0.84768600     -0.39268400
40
Lattice="9.099692583 -0.619298863 -0.214067285 0.320503530 8.635765856 -0.613181721 0.000049911 -0.004126139 5.404909920" Properties=species:S:1:pos:R:3:forces:R:3 stress="-0.0156745264330200 0.0057440982502807 0.0089290716743782 0.0057440982502807 -0.0108483107487386 0.0076177181348158 0.0089290716743782 0.0076177181348158 0.0036276774212399" energy=-336.2099320000 pbc="T T T" step=6000
C        2.49686000      2.52451000      2.81870000      1.04990400     -1.23210100      2.63470200
C        0.60933000      4.86670000      1.64434000     -0.34489100      0.19484400      1.14382900
C        2.78995000      6.75424000      3.07603000      2.76653300      0.41355600      1.34885400
C        7.23119000      2.18979000      3.07192000     -0.36327500     -1.36628600     -1.10732500
C        5.05361000      4.72366000      4.43206000      0.11189300     -1.71872100     -0.05100100
C        7.51351000      6.48143000      0.18465000      0.27273800      1.26743700      0.21625900
C        5.15443000      4.46581000      1.67895000     -1.14357600      0.11368400      1.31153100
C        7.71525000      6.55251000      2.85942000     -1.94718300     -0.46616200      0.87983500
Fe       3.34947000      1.18237000      4.28890000     -0.44391500      1.45334200      0.33293400
Fe       6.85392000      7.80005000      4.20934000      0.20569300     -1.21476900      0.72149100
Fe       5.49884000      1.18714000      0.29648000     -0.20035200     -0.13390000     -0.46936300
Fe       8.76584000      3.32322000      0.07501000     -0.37154100     -1.23232600     -0.30147700
Fe       3.19660000      1.11656000      1.70552000      0.49801300      1.24683000     -0.99320200
Fe       6.90074000      7.68025000      1.61708000      0.49882300      0.03935300     -0.89202800
Fe       5.49521000      1.10850000      2.80047000      0.87869200      0.72555000      0.62956300
Fe       8.70910000      3.26255000      2.72290000      0.59169800     -0.40605400      1.33681200
Fe       3.37566000      5.53445000      4.54260000      0.87154200      0.97431800     -0.53832900
Fe       6.46017000      3.15816000      4.38937000     -0.17051900      1.28738500      0.45144500
Fe       5.91371000      5.54783000      0.45944000      0.04169400      0.38916000     -1.80716100
Fe       9.22139000      7.68495000      0.32973000     -0.62393600     -1.23352200      0.11425000
Fe       3.56668000      5.70160000      1.68507000      0.37080100     -0.75828200     -0.14769500
Fe       6.47683000      3.18519000      1.56663000      0.79356400     -0.02178300      0.36581400
Fe       5.92495000      5.58834000      3.06927000      0.40434300      0.13377600     -0.72994800
Fe       9.22232000      7.44467000      3.20303000      1.61293700      1.09947100     -0.23298900
Fe       7.89068000      1.06701000      4.51546000     -0.00462200      0.29850600     -1.42320500
Fe       2.50085000      7.85559000      4.65650000     -0.28250400      0.65752600     -0.59408100
Fe       1.00395000      1.38735000      0.22863000      0.89229600      0.92382100      0.27685700
Fe       4.33688000      3.46178000      0.29114000     -1.08552800     -0.40143100      0.15694500
Fe       7.91633000      1.18899000      1.45500000     -0.47063500     -0.44549200      0.88164000
Fe       2.35903000      7.84090000      1.70231000     -1.27817700      1.26728700     -0.32121000
Fe       0.99164000      1.29589000      3.06710000     -0.05745000      0.95023100     -0.20283400
Fe       4.23455000      3.54084000      3.07081000     -0.69721000     -0.80400100     -0.14955900
Fe       8.19277000      5.34683000      4.27447000     -0.20214800     -0.15336800      0.04425200
Fe       1.71636000      3.84994000      4.31034000      0.67243900     -2.14647400     -0.12934800
Fe       1.40010000      5.92780000      0.37980000     -0.23536800      0.72933500     -0.32829400
Fe       4.70338000      7.70173000      0.50041000     -0.18016800      0.22043800     -1.12934400
Fe       8.27745000      5.37833000      1.53105000     -1.46522300      1.18510700     -0.20312100
Fe       1.95776000      3.66973000      1.61955000      0.68645600     -0.15447500     -1.57237200
Fe       1.25986000      5.91307000      3.24321000     -1.34383900     -1.02684700     -0.98883500
Fe       4.60108000      7.79289000      2.84497000     -0.30799800     -0.65495900      1.46570900
40
Lattice="9.290698357 -0.725988172 -0.206469361 0.322186937 8.681401914 -0.890764241 0.000049176 -0.004065454 5.325417259" Properties=species:S:1:pos:R:3:forces:R:3 stress="0.0140536127678916 0.0096205622232286 0.0055132061050892 0.0096205622232286 0.0131087731241997 -0.0092317661399623 0.0055132061050892 -0.0092317661399623 0.0084553848261901" energy=-336.6873230000 pbc="T T T" step=6200
C        2.68662000      2.60188000      2.88442000     -0.53147000     -0.76457500      1.18272200
C        0.54190000      4.84545000      1.64560000      0.36004000     -0.26503000     -0.28219100
C        2.91733000      6.84083000      2.63686000      0.97709000      1.01473500      0.31144000
C        7.29216000      2.18316000      2.66827000      1.37391000     -0.96392700     -0.75491300
C        5.37187000      4.56937000      4.09439000     -1.07807600     -1.27300400      1.28195300
C        7.71551000      6.55158000      0.15150000      0.55033300      0.67331500     -1.18777600
C        5.26006000      4.68673000      1.47808000     -2.09273600     -0.18587800     -0.68069700
C        7.82228000      6.50972000      2.64193000     -0.85628800     -0.06407100      1.83187800
Fe       3.44433000      1.22492000      4.17012000     -1.15766000      0.76741000     -0.35015100
Fe       7.05192000      7.85543000      4.13484000      0.22234800     -1.03430300     -0.53345800
Fe       5.48042000      1.24353000     -0.00356000      1.23080900      0.73732600      0.02680000
Fe       9.02077000      2.90559000      0.08620000      0.07548000      0.68062200      0.58640100
Fe       3.18537000      1.56647000      1.38311000      1.01345000     -0.68990400     -0.51664700
Fe       7.02134000      7.70282000      1.49695000      0.45735600      0.32557300     -0.55290100
Fe       5.66444000      1.24420000      2.75175000     -0.38180200     -0.81287200     -0.26267400
Fe       9.08187000      3.02333000      2.88121000      0.05045200      0.58533000     -0.85090800
Fe       3.80363000      5.85547000      4.07231000      0.07637200     -0.69981700      0.03118800
Fe       6.91528000      3.29894000      4.02739000     -1.35318100      1.16856300      2.04346200
Fe       6.07832000      5.69759000      0.11008000     -0.82791900     -0.47470600     -0.10869200
Fe       9.45553000      7.53988000     -0.08216000     -0.23017700     -0.19835500      0.78436100
Fe       3.63740000      5.78957000      1.28961000      0.76707500      0.12106100      0.08402700
Fe       6.41227000      3.30314000      1.46207000      2.76564600     -0.91098700     -1.09955700
Fe       6.04762000      5.55981000      2.80258000      1.41545300      1.62162100     -0.39178700
Fe       9.38538000      7.54222000      2.83940000      0.75081200     -0.04415900     -0.86883900
Fe       8.12895000      0.99420000      3.92615000     -0.62341300     -0.21409400      0.71081400
Fe       2.33481000      7.80173000      4.19671000      1.04594900      1.75000700      0.47566600
Fe       1.15674000      1.56703000      0.13571000     -0.80351400     -0.31576500     -0.36495000
Fe       4.43975000      3.51761000      0.17361000     -0.66442400      0.47451400     -0.78617300
Fe       7.96054000      0.94717000      1.20208000     -0.40815800      0.90957500      0.46409900
Fe       2.30547000      8.30529000      1.42171000      0.71999200     -1.78834000      0.10851000
Fe       0.95202000      1.58958000      2.68354000      0.15184400      0.91717300      0.58065500
Fe       4.42147000      3.27728000      2.90915000      0.22065700      1.80563600      0.21080200
Fe       8.34966000      5.41669000      4.08699000      0.32698700     -0.51766100     -0.07978100
Fe       1.99072000      3.75394000      4.38752000      0.89998500     -0.75474500     -0.65937700
Fe       1.54896000      5.83345000      0.19105000     -1.30833500      0.53107400      0.11154700
Fe       4.79913000      8.09303000      0.15124000     -0.74377700     -0.82549100     -0.10110700
Fe       8.44667000      5.30786000      1.35954000     -0.95413700      0.22395000     -0.00383600
Fe       2.13412000      3.86526000      1.65200000     -0.35819000     -0.37819000     -0.30381000
Fe       1.29808000      6.00376000      3.00851000     -0.07792700     -0.73661700     -0.51877500
Fe       4.83326000      7.85128000      2.70981000     -1.00085500     -0.39499200      0.43267600
40
Lattice="9.350411570 -0.754820571 -0.287527398 0.322820132 8.698481462 -0.910249246 0.000049097 -0.004058881 5.316806466" Properties=species:S:1:pos:R:3:forces:R:3 stress="0.0326968318525609 0.0046807947643556 -0.0037948936908538 0.0046807947643556 0.0258469691301215 0.0019427009069713 -0.0037948936908538 0.0019427009069713 0.0135155135460551" energy=-335.7516490000 pbc="T T T" step=6400
C        2.69244000      2.54857000      2.81917000      0.70989300      1.42136500      0.13729700
C        0.51018000      4.78417000      1.38348000      1.13787400     -0.45603300      0.58820500
C        3.29536000      7.02585000      2.69200000     -1.27689300     -0.27074400      0.66050900
C        7.42624000      2.13352000      2.29165000     -1.07354800      0.45314900      2.11931300
C        5.19790000      4.49414000      3.94972000     -0.23909300      0.49557200      0.05695100
C        7.74406000      6.33492000     -0.01567000      0.01607800      0.95865000     -1.18413400
C        5.18177000      4.53712000      1.37547000      0.80510200      1.45915100     -2.70980600
C        8.02342000      6.50970000      2.57036000     -1.10917500     -0.18186300     -1.00391600
Fe       3.24129000      1.33329000      4.31726000      0.77249400      0.80460400     -0.56946900
Fe       7.22255000      7.54533000      3.87109000      0.03773400      0.78515000      1.42740100
Fe       5.69795000      1.19590000     -0.16590000     -0.19243000     -0.10813900      0.29883400
Fe       8.81603000      2.94931000     -0.10579000      1.04321400      0.38051000     -0.85295900
Fe       3.27278000      1.31912000      1.54443000      0.65692600     -0.08590000     -0.77323000
Fe       6.96328000      7.77692000      1.34441000      1.57310900     -1.19450100     -0.85633100
Fe       5.63793000      1.25848000      2.60633000      0.06875200     -0.00299400     -0.42108300
Fe       9.18204000      2.82021000      2.50209000     -0.40022300      1.99502700     -0.21745400
Fe       3.61294000      6.01268000      4.35533000      0.67469200     -0.75796000     -1.40904100
Fe       6.61817000      3.18705000      3.98103000      0.85639900      0.04149800     -1.02989800
Fe       6.02587000      5.57083000     -0.12849000      0.09794200     -0.06154800      1.39963800
Fe       9.32778000      7.49531000     -0.03075000      0.98701400     -0.10382900      0.00527200
Fe       3.64292000      5.78897000      1.33104000      1.23790000     -0.40638100      0.55343200
Fe       6.63979000      3.24614000      1.06184000     -0.23929800      0.77129900      0.53377400
Fe       6.06788000      5.72309000      2.61756000      0.17945700     -1.20423000     -0.11445200
Fe       9.53830000      7.63117000      2.54110000      0.22908700     -0.06820900     -0.04473900
Fe       8.07026000      1.04833000      3.73487000     -0.33913200     -0.79234100      0.69287300
Fe       2.38911000      8.04663000      4.13563000     -0.09604100      0.61886200     -0.29852300
Fe       1.06744000      1.66188000      0.17379000     -0.70085300     -0.45296900      0.00437600
Fe       4.25495000      3.49192000     -0.03148000      0.49941500      0.05604600     -0.10551100
Fe       7.98102000      0.97416000      1.02593000      0.19249800     -1.23825600     -0.79940600
Fe       2.41460000      7.93271000      1.26613000     -0.00781800      1.19021900      0.18924700
Fe       1.06198000      1.67052000      2.86140000     -0.29422200     -1.18333700     -0.29824100
Fe       4.48120000      3.51464000      2.56985000     -2.11063200     -1.75445800      1.95899400
Fe       8.70141000      5.25277000      3.72802000     -0.59924700     -0.36869800      1.55311800
Fe       1.93186000      4.09217000      4.01019000      0.55269000     -1.67617100     -0.29892300
Fe       1.39411000      5.92657000      0.14973000     -0.46116000      0.74480800     -0.72587800
Fe       4.92379000      8.04105000      0.04698000     -0.62877500     -0.45725300      0.10425700
Fe       8.47075000      5.17313000      1.20230000     -1.73215600      1.33889900      0.31584800
Fe       2.15898000      3.80235000      1.19280000     -0.52738700     -1.00352700      1.12658800
Fe       1.38405000      6.07249000      2.69398000      0.73078500     -0.28224200      0.15584000
Fe       4.97442000      7.85983000      2.82153000     -1.03097200      0.59677500     -0.16877300
40
Lattice="9.139761639 -0.798832085 0.005751884 0.320140298 8.626346725 -0.975973885 0.000050126 -0.004143954 5.428245531" Properties=species:S:1:pos:R:3:forces:R:3 stress="-0.0019968335151741 -0.0052772333715110 0.0117771846122180 -0.0052772333715110 -0.0061268525527629 -0.0002767797199070 0.0117771846122180 -0.0002767797199070 0.0159443156627636" energy=-335.6335670000 pbc="T T T" step=6600
C        2.87769000      2.41580000      2.69454000     -0.23901200     -0.87557600      1.48319000
C        0.45982000      4.88248000      1.49207000     -0.00633600     -1.21107700      0.89446500
C        3.06159000      6.87967000      2.87956000     -1.24601500     -0.95398500     -1.77759500
C        7.33260000      1.94748000      2.78192000     -1.35917600      0.78382100      0.49155700
C        5.12232000      4.55967000      4.04782000     -0.63037200     -0.34856400     -0.82077000
C        7.52319000      6.53302000     -0.12568000      0.05502200      0.08825300      1.65089400
C        5.16093000      4.37288000      1.26768000     -0.30074000      0.60183100      0.96830300
C        7.54139000      6.40140000      2.74807000      0.43814100      1.07091400     -1.62037500
Fe       3.17684000      1.20848000      4.41082000      0.55512500      0.80082800     -1.80999500
Fe       6.97716000      7.73246000      3.95101000     -0.20836100      0.38526700      0.68027100
Fe       5.49617000      1.32429000      0.08784000      1.77944600     -1.68382700     -0.25617400
Fe       8.86496000      2.92413000      0.11469000      0.28847600      0.42301300     -0.39893700
Fe       3.43808000      1.26770000      1.27532000     -1.13726500      0.51658000      1.15977500
Fe       6.99769000      7.61339000      1.32936000      0.03814100      0.49289400     -0.23952400
Fe       5.55675000      1.22148000      2.99887000      0.39600700     -0.39793100     -0.41398300
Fe       8.88181000      2.93405000      2.89272000      0.68334200      1.66733300     -0.70636500
Fe       3.47737000      5.66374000      4.19493000      1.09192200     -1.08888500      0.75152300
Fe       6.61047000      3.29151000      4.14609000      1.08611000     -0.80168100     -0.55620600
Fe       5.81461000      5.52508000     -0.01509000      0.62878800      1.13870600      0.30513400
Fe       0.31346000      8.14941000      0.09662000     -1.72782500     -0.04778700     -0.00159900
Fe       3.50357000      5.60677000      1.43667000      0.34474800      0.02454500     -0.49703100
Fe       6.78239000      3.30860000      1.41411000     -0.99377700     -0.34267900      0.11045800
Fe       5.87712000      5.54905000      2.60743000     -0.72007100     -0.31541100      0.44209800
Fe       9.36670000      7.27803000      2.79661000     -0.04468700      0.16987200     -0.26264600
Fe       8.27191000      0.92500000      4.07375000     -1.70537500     -0.48545600      0.41956300
Fe       2.34469000      7.83926000      4.24060000      0.21514100      0.76204500      0.13776500
Fe       1.01131000      1.44300000      0.01627000      0.27877700      0.44470100      0.51200700
Fe       4.56486000      3.26456000     -0.08611000     -2.30716600      1.37769600      0.34973500
Fe       7.82075000      1.07956000      1.21579000      0.12767200     -1.37451600     -0.23249900
Fe       2.38819000      7.88610000      1.21273000      0.17585200      0.05403200      1.23388900
Fe       1.11525000      1.79874000      2.72011000     -0.82431900     -2.98291000     -0.50070100
Fe       4.36767000      3.44205000      2.69321000      0.67941500      0.21198200      0.24631900
Fe       7.97106000      5.26304000      4.07755000      1.71582200     -0.95607800      0.42670400
Fe       1.96839000      3.59103000      4.03818000      0.58138000      0.27541300      1.24198900
Fe       1.20952000      5.76249000      0.12153000      1.39980300      0.90615400     -0.96597700
Fe       4.70407000      7.92269000     -0.02164000      0.39487900     -1.65835400     -0.06485700
Fe       8.11499000      5.31785000      1.32389000      0.66176500     -0.07897000     -0.25105400
Fe       2.11494000      3.47225000      1.38280000     -1.01944700      2.01860300     -1.69752000
Fe       1.23162000      5.75005000      3.05361000      0.39274300      0.68536800     -0.91336400
Fe       4.68184000      7.71890000      2.54904000      0.46142600      0.70383700      0.48153300
40
Lattice="9.037925035 -0.924030139 -0.190037044 0.320061701 8.624275257 -1.021538112 0.000049642 -0.004103953 5.375847534" Properties=species:S:1:pos:R:3:forces:R:3 stress="-0.0090409569660470 -0.0051161712298446 -0.0058658700923234 -0.0051161712298446 -0.0034344839908582 0.0012058970022403 -0.0058658700923234 0.0012058970022403 -0.0059101036671341" energy=-336.5646660000 pbc="T T T" step=6800
C        2.57549000      2.48810000      2.81159000     -0.27099100     -1.37669900     -0.38757600
C        0.47908000      4.78754000      1.48684000      0.73464900      0.06752000     -0.19474800
C        3.04645000      6.68325000      2.84987000     -0.49543500      0.26312900     -0.64333400
C        7.31741000      1.84677000      2.76046000     -1.78133300     -0.11713600     -0.80779800
C        5.09562000      4.49230000      4.09964000     -1.05165400     -1.12533800      1.51566900
C        7.51734000      6.43714000      0.06769000      2.42839400      1.37309700     -0.43481700
C        5.14218000      4.31810000      1.46091000      0.01872600      0.20215300     -0.36455600
C        7.48483000      6.47606000      2.69133000     -0.11261200     -0.80819000      0.52402200
Fe       3.46729000      1.18861000      4.16814000     -0.70060600      0.59861100     -0.51901800
Fe       7.04316000      7.64190000      4.10556000     -0.72765000     -1.46451100     -0.03958400
Fe       5.55638000      1.06782000      0.17198000     -0.74535800      0.18684000     -1.17139900
Fe       8.76493000      2.83520000     -0.12379000      0.02771300      0.58441600      0.64146300
Fe       3.29174000      1.22841000      1.35998000     -0.62156700      0.36979800      0.24936800
Fe       7.13371000      7.80368000      1.42421000     -0.73432300     -1.89708000     -1.06091200
Fe       5.50144000      1.06233000      2.57183000     -0.14103200      0.27532800      0.97381700
Fe       8.77763000      2.88312000      2.79466000      1.00996900      0.52731200     -0.49359400
Fe       3.57293000      5.70936000      4.34494000      1.32575200     -1.06032700     -0.37955900
Fe       6.44390000      3.04645000      4.07823000      0.88129000     -0.40403400      0.59033700
Fe       6.13947000      5.38318000      0.08164000     -3.21390700     -1.90169700      0.43259200
Fe       0.45193000      8.36561000      0.09290000     -1.45975400     -1.50439200     -0.62666000
Fe       3.72041000      5.66629000      1.43018000      0.31590000     -0.61432000      0.08437100
Fe       6.62599000      3.07090000      1.40689000     -0.24482700      0.37573300     -0.33840800
Fe       6.06298000      5.21106000      2.81000000     -0.15979400      1.17392600     -1.47396500
Fe       9.21430000      7.17729000      2.50086000      1.94283000      0.90079500      1.57400500
Fe       7.73701000      0.71252000      4.12083000      0.94819200      0.85561000     -0.61518700
Fe       2.54193000      7.97912000      4.10040000     -0.54646800      0.16236200      0.76261700
Fe       0.97633000      1.56645000     -0.18572000      0.49519300      0.23205900      0.32790000
Fe       4.27575000      3.36434000      0.09191000      0.00139900      0.12575600     -0.02444000
Fe       7.74316000      0.82140000      1.09250000      0.88733400      1.49189000      1.05653000
Fe       2.38418000      8.02636000      1.47334000      0.98872700     -1.32260800      0.10886800
Fe       0.86063000      1.42097000      2.56433000      0.96947300      1.73374900      0.62604800
Fe       4.28666000      3.19293000      2.83937000      0.44233400      1.38657600     -0.53086100
Fe       8.23498000      5.29594000      4.02245000      0.72008600     -0.42440000      0.36758200
Fe       1.93001000      3.63938000      4.12244000      0.38559500     -0.30600700      0.51218300
Fe       1.57415000      5.87461000      0.15361000     -1.08147200      0.16671600      0.32155900
Fe       4.84186000      7.54644000      0.11749000     -0.48514400      0.73248400      0.13664600
Fe       8.35617000      5.35518000      1.34836000     -0.72150900     -0.79957900     -0.36328600
Fe       2.11146000      3.70412000      1.41573000     -0.79486500     -0.58214400     -0.20532900
Fe       1.35129000      5.69032000      2.95921000      0.93707400      1.20069700     -0.24266500
Fe       4.77025000      7.55882000      2.74735000      0.62967400      0.72190300      0.11211900
40
Lattice="9.058906313 -1.146037312 -0.114879352 0.328264059 8.845452100 -1.204666290 0.000049590 -0.004099638 5.370194732" Properties=species:S:1:pos:R:3:forces:R:3 stress="-0.0022470244064238 -0.0046832601604400 0.0080966416091174 -0.0046832601604400 0.0319541671708090 -0.0068746477549741 0.0080966416091174 -0.0068746477549741 -0.0028353365687644" energy=-335.2194170000 pbc="T T T" step=7000
C        2.42786000      2.48462000      2.82599000      0.14705600      0.43024600      0.50548600
C        0.55249000      5.14701000      1.42056000     -0.17229400     -1.98415300      0.69888400
C        3.07765000      7.09280000      2.35938000     -0.93323400      0.49543200      1.66487700
C        7.17415000      2.01053000      2.55691000     -0.49796800     -1.04302600      0.51820100
C        5.04001000      4.42909000      4.06692000      0.25717700      1.17887900     -2.21480900
C        7.54842000      6.35407000      0.08669000      0.70949200      1.28791800     -0.65200000
C        4.95706000      4.65771000      1.22478000     -0.36476300     -0.79649100      1.72482100
C        7.50319000      6.24751000      2.64849000     -0.26835500      2.11528400      0.62804500
Fe       3.23015000      1.58009000      4.28307000     -0.27149200     -1.14245000      0.00299500
Fe       7.04264000      7.75542000      3.92092000     -0.40406800     -1.69265100      1.10699200
Fe       5.37353000      1.21185000     -0.10733000      0.01461800     -0.30197200      0.39860400
Fe       8.72281000      2.73236000     -0.27455000      0.16710100      0.82346500      1.30912000
Fe       3.22126000      1.45098000      1.51467000      0.71974300     -1.40295700     -1.33240900
Fe       7.21770000      7.75585000      1.42407000     -0.00549800     -1.33839100     -0.31979400
Fe       5.41013000      1.07289000      2.56646000      0.13134200      0.50536200      0.16972700
Fe       8.85587000      2.77506000      2.68302000      0.04594100      1.03287900     -0.80527300
Fe       3.79010000      5.99259000      3.99984000     -1.13887700     -0.73270900     -0.66322300
Fe       6.41943000      3.18702000      3.85402000      0.47900900     -0.34431000      0.88240100
Fe       6.00889000      5.43434000     -0.06861000     -1.19759100     -0.44840700      0.19335900
Fe       9.30157000      7.14843000      0.13257000     -0.46329600      0.36182900     -0.67954300
Fe       3.60876000      6.06864000      0.97425000     -0.20095500     -1.51699700      0.44039100
Fe       6.48835000      3.20734000      1.29686000     -0.87772300      0.30952500     -0.93465700
Fe       5.71167000      5.58895000      2.67808000      1.13545200     -0.39774800     -0.75220000
Fe       9.31991000      7.26041000      2.99982000      0.39532500      0.13021600     -1.02116600
Fe       7.58784000      0.76703000      4.13318000      0.47366200      1.09030700     -1.64685300
Fe       2.74597000      8.08998000      4.05427000     -0.80881500      0.92800500      0.12075000
Fe       0.80695000      1.64083000      0.14203000      0.74669500     -0.51671300     -0.11845700
Fe       4.04396000      3.64908000     -0.05784000      0.07922900     -1.13624000      1.46528100
Fe       7.68825000      0.71520000      1.21874000     -0.13346300      0.53118600      0.56332100
Fe       2.32537000      8.34462000      0.99902000      1.02170600     -0.34840700      1.50325500
Fe       0.78695000      1.64037000      2.69363000     -0.62951000     -0.53872100      0.65583200
Fe       4.02535000      3.53527000      2.70364000      2.18114700      0.63304300     -0.54594900
Fe       8.12523000      5.27645000      4.01652000      0.82150200     -1.52190100      0.65733500
Fe       1.93511000      3.83479000      4.09697000     -0.53738900      0.43454200      0.31355500
Fe       1.26226000      5.95599000     -0.01582000      0.94139700      0.90146800     -1.22509000
Fe       5.09363000      7.66797000      0.17249000     -0.30617100      1.81729300     -1.62594300
Fe       8.07960000      5.08847000      1.39053000      0.43769800     -0.26383100     -0.62052000
Fe       2.08439000      3.67201000      1.40800000     -2.44793300      1.47476600     -1.28032000
Fe       1.40139000      6.19017000      2.75989000      0.45162100     -0.07531000     -0.11075900
Fe       4.77488000      7.89905000      2.48606000      0.30248200      1.06173900      1.02573300
40
Lattice="8.977588690 -1.353498754 -0.217120652 0.322424993 8.687949898 -1.023328566 0.000049729 -0.004111098 5.385206247" Properties=species:S:1:pos:R:3:forces:R:3 stress="-0.0304328804735271 -0.0093411485864922 -0.0048916766314544 -0.0093411485864922 0.0018076658581453 -0.0071736659717133 -0.0048916766314544 -0.0071736659717133 0.0004398329029682" energy=-335.2624120000 pbc="T T T" step=7200
C        2.35869000      2.49285000      3.03311000      0.95003100     -0.05736700     -1.60116400
C        0.48254000      5.18259000      1.59277000     -0.54331900     -1.50477000     -0.23291000
C        2.93247000      6.72386000      3.10552000      1.04945700      1.35629800     -0.46438700
C        6.95005000      2.10364000      2.83821000      0.54158000     -1.12559200      0.30428800
C        4.77589000      4.38321000      4.19213000      0.11688800     -0.62197000     -0.79023500
C        7.27780000      6.22102000      0.02245000     -0.41086300      0.98938400      3.56348600
C        4.89869000      4.26349000      1.53809000      0.27385900      0.15760500     -0.05201100
C        7.64213000      6.29632000      2.86412000     -3.09999900     -1.14456700     -0.60825500
Fe       3.04548000      1.30798000      4.28776000      0.75542800     -0.60269700     -1.04086000
Fe       6.90648000      7.47170000      4.13978000     -0.39590500      0.04821500     -0.35254200
Fe       5.44710000      0.81412000      0.12928000     -1.17858200      0.78650900     -0.08078000
Fe       8.55385000      2.59146000      0.17415000      0.63588400      0.86400200     -0.39005500
Fe       3.08463000      1.35849000      1.27858000     -0.10030500     -0.01472300      1.80442100
Fe       6.93157000      7.47086000      1.36905000     -0.41684500     -0.32858100      0.91715300
Fe       5.38092000      1.01065000      2.92411000     -0.28859700     -0.09025300     -0.01550600
Fe       8.81506000      2.58561000      2.93498000     -1.99532800      0.60898400     -0.51751700
Fe       3.37459000      5.63383000      4.54446000      0.03462700      0.30498800     -0.48139700
Fe       6.45638000      3.28405000      4.25953000      0.10540600     -1.61164700     -0.87117900
Fe       5.61991000      5.27874000      0.09460000      1.00073300      1.28011300      1.91529900
Fe       9.13466000      7.12531000      0.06951000      0.01345200      0.56246300     -0.06034200
Fe       3.62453000      5.61269000      1.64767000     -1.20611300      0.64377600      0.49451500
Fe       6.22992000      2.94445000      1.29123000      0.39828100      0.50314300      1.10855400
Fe       5.78906000      5.42341000      2.90464000      0.06312400     -0.31948000     -0.63254600
Fe       0.31138000      8.05981000      2.87974000      1.41289200      2.17530900      0.28409800
Fe       7.87264000      0.34367000      4.03902000     -1.14412500      1.67770800     -0.68381600
Fe       2.36409000      8.20798000      4.32807000      0.21043800     -1.43572700      0.44968600
Fe       0.81691000      1.75966000      0.04754000      0.44477500     -0.07307100      0.31659000
Fe       4.09628000      3.18883000      0.11947000     -0.47164300      0.41103100      0.47306800
Fe       7.44369000      0.88529000      1.32487000      0.99995100     -1.39405600      0.40676400
Fe       2.30947000      8.03596000      1.71564000      1.18279100      0.12775400     -0.24943400
Fe       0.77921000      1.75296000      2.52404000     -0.69775300     -1.04860000      0.58148700
Fe       4.08768000      3.21697000      2.90813000      0.58221500      0.35236300     -0.49562900
Fe       7.98339000      5.09586000      4.38281000      2.04033700     -2.26859900     -3.07463400
Fe       1.83801000      3.73800000      4.27353000      0.00084800      0.27106700      1.33664400
Fe       1.34854000      6.33021000      0.31821000     -0.34851500     -0.93168700      0.18174300
Fe       4.46555000      7.64599000      0.55560000      0.56446700      0.34242100     -0.91323600
Fe       7.85106000      4.87193000      1.54195000      0.66011700      0.51623400     -0.49833700
Fe       1.91728000      3.80457000      1.60314000     -0.11523400      0.15317700     -0.80436900
Fe       1.29428000      5.92383000      3.04679000     -0.06890900      0.31115800      0.64434800
Fe       4.77493000      7.62415000      3.06055000     -1.55554600      0.12968300      0.12899600
40
Lattice="9.005059674 -1.360162610 -0.263158874 0.314494878 8.474352907 -1.082209544 0.000050868 -0.004205326 5.508638365" Properties=species:S:1:pos:R:3:forces:R:3 stress="-0.0116076215351921 0.0067682425082727 -0.0020377216411209 0.0067682425082727 -0.0321976421982946 0.0121011064501643 -0.0020377216411209 0.0121011064501643 -0.0090142183411720" energy=-335.3427130000 pbc="T T T" step=7400
C        2.22000000      2.70698000      2.84801000     -0.49918700     -0.06670300      0.10494400
C        0.41318000      5.17023000      1.51103000      1.29726600     -0.37884300      0.72662600
C        2.93740000      6.71417000      3.03602000      1.09529000      0.14439000     -0.35703700
C        6.80064000      1.71129000      2.84230000     -0.63055500      1.79123800     -2.08063200
C        4.93583000      4.42074000      4.22923000      1.66682000     -2.44704100     -0.91520300
C        7.60956000      6.08130000      0.22142000      0.09165500      0.87264000     -0.97181500
C        4.80008000      4.14097000      1.33826000      0.02394300      0.81656500      0.39695600
C        7.42745000      6.20778000      2.95449000     -0.36349200      0.86341800     -0.11207500
Fe       3.01020000      1.45367000      4.08622000     -0.70234000     -1.38260500      0.73134400
Fe       6.92426000      7.37637000     -1.10107000     -0.04757100     -0.45823900     -0.35012800
Fe       5.10899000      1.06801000     -0.03859000      0.55137000     -0.27647300     -0.46453400
Fe       8.26563000      2.75698000      0.27335000      0.18237900     -0.08712000     -2.41409200
Fe       2.68866000      1.50641000      1.42892000      0.30704600     -1.53205800     -1.52040300
Fe       6.63749000      7.30789000      1.42297000      0.78377600     -0.81587900      0.62565500
Fe       4.99777000      1.09167000      2.46251000      0.50109200     -1.21879500      0.78155500
Fe       8.66857000      2.87064000      2.76371000     -1.36969900     -1.42420400      1.05507400
Fe       3.67754000      5.55825000      4.31353000     -2.18472000      1.68543500      0.54884700
Fe       6.28411000      3.06156000      4.06175000      0.12889500     -0.62736200      0.83545600
Fe       6.02348000      5.02870000      0.21003000     -1.50043500      0.71464500     -1.17803900
Fe       0.49819000      8.25580000      0.43733000     -1.68382400     -0.08251400     -0.41495300
Fe       3.46781000      5.59932000      1.58214000      0.96624600     -0.78114100     -1.17104000
Fe       6.30977000      2.95255000      1.37095000     -0.52499800     -0.70610100      0.72960300
Fe       5.91404000      5.08056000      2.73712000     -1.74719900      0.62423000      0.20856700
Fe       9.11487000      7.09525000      3.01813000      0.51171400     -0.26818400     -0.72174200
Fe       7.53001000      0.87815000      4.15121000      0.57570600     -1.61250100      1.88867900
Fe       2.34356000      8.01157000      4.23173000     -0.39680600      0.83287700      1.21857600
Fe       0.49058000      1.94776000      0.19454000      0.73237800     -1.05808200     -0.62977100
Fe       3.93791000      3.20224000     -0.15732000      0.75180300      1.07118000      1.58309000
Fe       7.51644000      0.68123000      1.44479000     -0.36429000      0.08166500     -0.57110100
Fe       2.40862000      7.93240000      1.68129000      0.24695600      0.56851100     -0.88277200
Fe       0.61440000      1.74376000      2.78386000     -0.32926100      0.08249400      1.18186700
Fe       4.00592000      3.14061000      2.67808000      0.64216800      2.42059300      0.65698700
Fe       7.98863000      4.89159000      4.17919000      1.21105500      0.25842900      1.07156000
Fe       1.69979000      3.63781000      4.45381000     -0.16109800      0.65984700     -0.98015000
Fe       1.47288000      5.97290000      0.11538000     -0.23950700      0.29539100      0.05175200
Fe       4.32880000      7.67421000     -0.04909000      0.72914700     -0.78709500      1.10107100
Fe       8.09663000      5.05125000      1.65624000      0.38836800      0.50887300     -1.39406400
Fe       1.71900000      3.73323000      1.30160000     -0.00940900      0.86037700      1.25713200
Fe       1.32823000      5.92398000      3.06526000     -0.98214100     -0.24254000     -0.02081800
Fe       4.68023000      7.44319000      2.79568000      0.35145800      1.10068200      0.39502900
40
Lattice="9.023615309 -1.458188791 0.127885930 0.314138078 8.464745260 -1.087548541 0.000050704 -0.004191699 5.490787282" Properties=species:S:1:pos:R:3:forces:R:3 stress="0.0083423448553426 -0.0027782454852603 0.0070516819183621 -0.0027782454852603 -0.0216099893515236 0.0076271677795546 0.0070516819183621 0.0076271677795546 0.0009604184503417" energy=-336.5965460000 pbc="T T T" step=7600
C        2.17552000      2.67113000      3.01315000      1.43668500     -0.19989300     -1.28805600
C        0.46125000      5.20689000      1.37107000     -0.98615000     -0.12939800      0.83785600
C        3.03596000      6.66741000      3.19315000     -1.10088500      1.77817200     -1.28301300
C        6.70152000      1.60053000      2.94895000      0.84916900      0.50284100      0.11538800
C        5.13770000      4.27365000      4.31102000     -1.22182700     -0.76136700     -0.78662100
C        7.46491000      6.10129000      0.24701000     -0.65173400      0.54524700     -1.07027200
C        4.77875000      4.35170000      1.50117000     -0.02103500     -1.27255200      0.81444400
C        7.49130000      6.12402000      3.02035000      0.27607000      0.08964100     -1.07233600
Fe       3.07229000      1.44827000      4.24659000     -0.46718700      0.33533200     -0.86680300
Fe       6.60581000      7.15518000      4.30176000      0.73668200      0.05054300      1.04091100
Fe       5.18489000      1.07538000      0.00264000     -0.04472800     -0.30105100      0.20104000
Fe       8.33026000      2.79111000      0.26678000      0.93661700     -0.09457500     -0.76939000
Fe       2.90348000      1.47172000      1.33848000     -0.36200700      0.51495000      1.19387800
Fe       6.71646000      7.34015000      1.51738000      0.59431400     -0.95605200      0.26929400
Fe       5.00702000      0.93401000      2.55410000     -0.16269400      0.30778900      0.69143800
Fe       8.49644000      2.51447000      2.89552000      0.14657500      0.89841900      0.47593700
Fe       3.71834000      5.61961000      4.41061000     -0.58819100     -0.70939000      0.53193400
Fe       6.35626000      2.85787000      4.32900000      0.03947500     -0.46756400     -0.00162400
Fe       5.69309000      5.22061000      0.21517000      2.15321300      1.04193000      0.85665100
Fe       9.27428000      6.89371000      0.38504000      0.02378300      0.84346600     -0.51746600
Fe       3.48500000      5.69238000      1.64131000      0.70143800     -0.56966000     -0.54445500
Fe       6.24296000      2.97666000      1.54393000     -0.52723000      0.00820600     -0.02670800
Fe       5.88176000      5.11896000      2.84852000      0.10417300      0.83372200      0.03299400
Fe       9.24929000      6.87262000      3.27057000     -0.51833400      0.12637300     -0.59991400
Fe       7.53601000      0.37205000      4.29280000     -0.18275300      1.81075500     -0.28054200
Fe       1.98092000     -0.30360000      5.31901000      0.74778000     -0.76292600      1.11334700
Fe       0.78990000      2.01495000      0.15248000     -0.25297600     -0.20822400     -0.46077100
Fe       3.87153000      3.40535000      0.04973000      0.16712100     -0.35936600      1.13891500
Fe       7.52419000      0.87543000      1.38338000     -0.33678400     -1.86297500     -0.30948200
Fe       2.52604000      7.88253000      1.67623000     -0.67416500      1.56434100     -0.61313000
Fe       0.63914000      1.66713000      2.77959000      0.24003600      0.40669800      0.16611500
Fe       4.06648000      3.38222000      3.00848000     -1.22222400     -0.40525400     -1.07577300
Fe       8.03166000      4.82306000      4.34951000      0.14323300      0.35327600      0.18517800
Fe       1.54858000      3.88810000      4.23242000     -0.00499000      0.32692400      0.60721900
Fe       1.46966000      6.15561000      0.08383000      0.26814300      0.09402400     -0.33893000
Fe       4.38750000      7.52987000      0.18343000      0.48785100      0.25612700      0.00807900
Fe       8.23587000      5.08559000      1.52777000     -1.39455000     -0.33931700      1.64693500
Fe       1.78628000      4.03633000      1.54575000      0.86114600     -2.59708300      0.18755800
Fe       1.24618000      6.15550000      2.94062000     -0.33888200     -1.24091800      0.03966400
Fe       4.68184000      7.56437000      2.99584000      0.14582000      0.54879100     -0.24948900
40
Lattice="9.289898174 -1.367142811 0.016319952 0.322275184 8.683885298 -0.995271332 0.000049793 -0.004116410 5.392164850" Properties=species:S:1:pos:R:3:forces:R:3 stress="0.0353347869383545 -0.0066840632753854 0.0127068199398045 -0.0066840632753854 0.0209707339921174 -0.0005137136458826 0.0127068199398045 -0.0005137136458826 0.0040750500671701" energy=-334.9198020000 pbc="T T T" step=7800
C        2.65402000      2.25130000      2.83655000     -1.28346700      3.18410300      0.37528500
C        0.48634000      4.99236000      1.62850000      0.10623800      0.05229100     -1.10211100
C        3.02667000      6.96186000      3.14738000      0.46548800     -0.89767900     -1.14361300
C        7.03975000      1.71960000      2.92357000      0.35635900      1.78496100      0.03857500
C        5.14565000      4.31040000      4.25187000     -0.17141500     -0.23745700      1.94894100
C        7.65170000      6.24684000      0.20098000     -0.09156600      0.58488800      1.09760900
C        4.83707000      4.45571000      1.54397000      0.44634200      0.24940000     -0.49822000
C        7.62494000      6.19032000      2.91279000     -1.01424300      1.34841500      1.17005200
Fe       2.81529000      1.19132000      4.23214000      1.12129600     -0.82684500      1.33461000
Fe       6.90205000      7.57602000      4.31961000      1.25209000     -1.16612300      0.42264000
Fe       5.19699000      1.23014000      0.09784000      0.26469800     -0.93836700     -0.15593700
Fe       8.94184000      2.77825000     -0.00271000     -0.47832800      0.20399300      0.48507600
Fe       2.75888000      1.28747000      1.37895000      1.25548000     -0.81593500     -1.46758100
Fe       7.20997000      7.56002000      1.65318000     -0.85825500     -1.64082600     -0.57530000
Fe       5.36855000      1.07411000      2.70000000     -1.80418600     -0.96614200      0.27638800
Fe       8.76552000      2.62590000      2.84104000      0.03554900      0.36376200      0.68400700
Fe       3.68085000      5.53810000      4.26433000     -1.13514000      0.78913700      0.21476400
Fe       6.51496000      2.98066000      4.18928000      0.21408700      0.17526000      1.04630000
Fe       5.85680000      5.61373000      0.24775000      0.00126700     -1.39841100     -0.05742300
Fe       9.33131000      7.19650000      0.34749000      0.65110600      0.09659200      0.13696300
Fe       3.45921000      5.83979000      1.38621000      0.48929100     -0.43943600      0.80828300
Fe       6.27870000      3.11328000      1.48046000      0.97628500     -0.29965700     -0.00316700
Fe       5.89187000      5.21232000      2.91465000      1.65014200      1.84431800     -1.10409200
Fe       9.48662000      7.19437000      3.09102000      0.28616300     -0.39267200      0.18188100
Fe       7.75565000      0.47127000      4.12199000      0.40447700      1.78451200      1.06047400
Fe       2.25622000      7.96153000     -0.88979000     -0.04787100      0.34100400      0.07408100
Fe       0.66787000      1.85212000      0.20035000     -0.19121700     -0.62342800     -0.21686700
Fe       4.06430000      3.35996000      0.17807000      0.18825900      0.35897800      0.29965400
Fe       7.70431000      0.92481000      1.45411000      0.36868900     -1.29074300     -2.18659000
Fe       2.41446000      8.08384000      1.70658000     -0.74902600     -0.26552800      0.22930700
Fe       0.69613000      1.84063000      2.91274000     -0.05092400     -0.38075900     -0.45448600
Fe       4.18591000      3.39766000      2.95929000     -0.99138000     -1.31207400     -0.88883100
Fe       8.41682000      5.19254000      4.27785000     -0.25017500     -0.75710100      0.98827600
Fe       1.88737000      3.62355000      4.34083000      0.20131000      0.28944200     -0.69168400
Fe       1.28151000      6.11128000      0.18024000      0.33696900     -0.64263600      0.35661100
Fe       4.60330000      7.72716000      0.31565000      0.12091800      0.81894700      0.53007900
Fe       8.68644000      5.17087000      1.88263000     -1.22997300     -0.10591800     -3.06755500
Fe       1.85033000      3.67355000      1.55407000      0.16655600      0.07077800      0.33903000
Fe       1.41961000      5.90449000      2.99877000      0.06085000      0.12470700      0.78426900
Fe       4.88108000      7.51699000      3.31643000     -1.07274300      0.93224600     -1.26969800
40
Lattice="9.242728826 -1.288024331 -0.037949086 0.322145173 8.680442121 -1.054191907 0.000049928 -0.004127612 5.406838604" Properties=species:S:1:pos:R:3:forces:R:3 stress="0.0478158390119176 0.0079746325897298 0.0045230156564623 0.0079746325897298 0.0193319384034907 0.0146252601010033 0.0045230156564623 0.0146252601010033 0.0103946778692068" energy=-335.6328730000 pbc="T T T" step=8000
C        2.04210000      2.69862000      2.63978000      2.48022000     -1.19283800      0.72779300
C        9.31810000      3.81918000      1.38197000      1.43972800      0.00657100      0.28492700
C        2.79314000      6.83219000      3.05244000     -0.58833100      1.00636500     -0.23127600
C        6.84031000      1.86001000      2.71307000      0.60748000      0.17396200      1.34565600
C        4.91825000      4.41398000      4.16829000     -0.41048900     -0.47765500      1.82804000
C        7.64522000      6.50464000      0.23066000      0.55793800     -1.25963600     -1.43112200
C        4.63623000      4.26271000      1.48707000      1.73841900      1.96755500     -2.10897000
C        7.49981000      6.31807000      2.85830000     -0.33195300      0.44999800      0.13481900
Fe       2.85503000      1.39525000      4.05350000     -0.46047500      0.08881500     -0.28051900
Fe       6.71625000      7.36182000      4.34985000      0.21754700      1.15176300     -2.01282300
Fe       5.07693000      1.09024000      0.08519000      0.47367800     -0.67237200     -0.59486100
Fe       8.57489000      2.81402000     -0.05836000      0.20436300      0.12660900      0.25564100
Fe       2.87553000      1.36619000      1.40259000     -0.94437900      0.58260600      0.27720300
Fe       6.79912000      7.49380000      1.45731000     -0.19155900      0.06285100      2.54807100
Fe       5.01060000      1.26868000      2.77955000      0.29157700     -1.36292600      0.46956100
Fe       8.54569000      2.85681000      2.81213000     -0.97634400     -0.87115400     -0.26207700
Fe       3.56542000      5.87839000      4.46786000     -0.25277700     -1.14435700      0.06496100
Fe       6.31745000      2.97590000      4.26403000     -0.43715700      0.56762500     -0.24482400
Fe       5.74029000      5.46174000      0.18598000     -0.31925000     -1.37202700      0.60263800
Fe       9.54142000      7.12014000      0.18800000     -1.04543700      0.54977200     -0.18415700
Fe       3.53718000      5.81943000      1.70859000     -0.65903700     -0.37040100     -1.41386500
Fe       6.05110000      2.98945000      1.43855000      0.87135200      0.81717500     -0.70079200
Fe       5.76030000      5.43580000      2.92746000      0.28892300     -0.14647700     -1.42223400
Fe       9.32754000      7.07914000      2.95335000     -0.07514700      0.32035100     -0.15223800
Fe       7.68037000      0.70925000      4.33874000     -1.20133300      0.19461900     -1.16878600
Fe       2.51147000      8.13232000     -0.99771000     -0.65572700      0.20042900     -0.67111400
Fe       0.58963000      1.80537000     -0.11007000      0.73812200     -0.06554500      0.89322300
Fe       3.70344000      3.13781000      0.12692000      1.11032800      1.99524200     -0.45492500
Fe       7.41249000      0.60805000      1.44695000      0.42957800      0.89671100     -0.38024600
Fe       2.29127000      8.16528000      1.52661000      0.30642300     -0.98588300      1.42084900
Fe       0.45103000      1.84368000      2.70925000     -0.67231400     -0.84943700     -0.21040100
Fe       3.95365000      3.53161000      2.86909000     -1.73060100     -1.66504700      1.65703900
Fe       8.01159000      5.13660000      4.20845000      0.24960600     -0.27242200      0.46476400
Fe       1.69649000      3.85322000      4.04025000     -0.53142500      0.03899100      1.51392000
Fe       1.16344000      6.17198000      0.17718000      0.36107600     -0.43648200      0.50564200
Fe       4.68698000      7.88470000      0.37779000     -0.72846900     -0.49955200     -0.25985500
Fe       8.10892000      5.21135000      1.42074000     -0.39978400     -0.28904200      1.13104200
Fe       1.65186000      3.94510000      1.41500000     -0.67652700      0.59285800     -1.33491600
Fe       0.94432000      5.89291000      3.19719000      1.25260100      1.24958900     -1.00184100
Fe       4.63669000      7.68439000      2.91832000     -0.33044300      0.89279800      0.39605200
40
Lattice="9.126973056 -1.269745485 0.138499582 0.315670509 8.506456344 -1.506103665 0.000050827 -0.004201880 5.504124265" Properties=species:S:1:pos:R:3:forces:R:3 stress="0.0084869418960706 -0.0026514929189761 0.0074990358397650 -0.0026514929189761 -0.0080015959089315 -0.0089873860936609 0.0074990358397650 -0.0089873860936609 0.0211277079453401" energy=-336.0828020000 pbc="T T T" step=8200
C        2.24659000      2.59989000      2.69260000      0.13742700     -0.46696600     -0.99099900
C        9.29221000      3.94660000      1.10123000      0.62301300     -0.05284800      1.53306200
C        2.74963000      7.06903000      2.40894000      1.30957800     -0.48175600      2.35128000
C        6.89345000      2.02633000      2.57674000     -1.31485900      1.82929800      1.23481800
C        4.59912000      4.41197000      4.03837000     -0.27073000      1.06466500     -0.42311200
C        7.17790000      6.32256000     -0.09232000      0.71150900     -0.04521100     -0.71771800
C        4.66136000      4.50899000      1.35747000      0.65295300      0.34730300     -0.65166100
C        7.14400000      6.21107000      2.73884000      1.87522000      1.35960600     -0.60111300
Fe       3.01102000      1.40815000      4.16515000     -0.88016800      0.82362100     -0.32784100
Fe       6.45915000     -0.77438000      5.41620000      0.45014700     -2.55677700      1.30432200
Fe       5.28731000      1.10581000     -0.24057000     -0.76324400      1.99869300      0.98721900
Fe       8.35255000      2.89049000     -0.09386000     -0.31118700     -0.18186400      0.01215500
Fe       2.87251000      1.44603000      1.24315000      0.26907500      0.61743100      0.10615300
Fe       6.65257000      7.41925000      1.26647000      0.16769900      0.81987000      0.14902400
Fe       5.07401000      1.30253000      2.62596000      0.76186700     -0.47987100     -0.65635200
Fe       8.44366000      3.10802000      2.96108000      0.75369200     -0.34830300     -1.32381400
Fe       3.38208000      6.03539000      4.01969000      0.08949500     -0.97590200     -1.07880400
Fe       6.16112000      3.36733000      4.06175000      0.59049200     -1.37986800     -0.28232100
Fe       5.48993000      5.46428000     -0.21075000      0.88137900      0.22075700      1.35214900
Fe       8.99799000      7.08919000      0.02197000      0.35180000      0.41860100     -0.58077500
Fe       3.33164000      5.81282000      1.13664000     -0.02230800      0.14717600     -0.03459100
Fe       6.08756000      3.23541000      1.26788000      0.77738500     -0.27547400     -0.28639700
Fe       5.46440000      5.62508000      2.65894000     -0.96250300     -1.56633600      0.30250700
Fe       8.70623000     -1.20957000      4.22433000      0.12676400     -0.57367000     -0.08834500
Fe       7.36462000      0.92232000      3.98702000      1.02169000      0.11076400      0.48052400
Fe       2.16823000      8.18845000      3.96819000     -0.74271100     -0.12946000     -0.77203400
Fe       0.52321000      2.01521000     -0.00023000      0.26864600     -0.94140600     -0.73201500
Fe       3.77865000      3.57729000      0.01437000     -0.58471000     -1.04129300     -1.13635400
Fe       7.52693000      0.99448000      1.29624000      0.31618400     -1.11789800     -1.24661000
Fe       2.20701000      8.01984000      1.03409000     -0.90773500      1.25836000     -1.33106900
Fe       0.65774000      1.68417000      2.53255000     -1.12090500      0.08887000      0.40944600
Fe       3.90665000      3.34290000      2.66006000      0.38419800      1.33771600      0.36989800
Fe       8.08495000      5.24313000      4.04459000     -0.69231600      0.05433000      0.40715100
Fe       1.51118000      3.65094000      3.95857000     -0.36589200      1.25262600      0.84307700
Fe       1.33623000      5.88730000     -0.46551000     -1.31930300      0.60673300      1.02571200
Fe       4.41666000      7.78806000     -0.35895000      0.59675000      0.48214300      0.63569300
Fe       7.92828000      5.20707000      1.31767000     -0.25898900     -0.22721900     -0.26279200
Fe       1.58100000      3.94254000      1.20826000     -0.06962900     -0.74851300      0.49970000
Fe       1.17912000      6.10053000      2.55226000     -1.35088100     -0.27653500     -0.66233600
Fe       4.25637000     -0.58621000      3.89368000     -1.17889400     -0.97139200      0.18316200
40
Lattice="8.919951055 -1.082655915 0.149210116 0.318562092 8.584514602 -1.656269417 0.000050908 -0.004208619 5.512951312" Properties=species:S:1:pos:R:3:forces:R:3 stress="-0.0262991976701116 0.0016592614968819 0.0047612353333072 0.0016592614968819 -0.0211607068038167 0.0066256489919575 0.0047612353333072 0.0066256489919575 -0.0030859456411221" energy=-335.5152510000 pbc="T T T" step=8400
C        2.27397000      2.83992000      2.53536000     -1.15646100      1.93314700     -0.29862200
C        9.05945000      4.29031000      1.11041000      0.26863800     -1.54793200      2.42873800
C        2.79197000      7.13235000      2.41396000     -1.67292200      1.80042300     -2.30371800
C        6.76783000      2.34454000      2.60400000     -1.87243300     -0.82025100     -1.89787500
C        4.65836000      4.81813000      3.76110000      0.69682200     -0.50480800      0.52333300
C        7.18920000      6.53050000     -0.38552000     -0.19014900      1.51814500      3.19124900
C        4.68390000      4.68361000      0.87737000      0.10177100     -2.03530500      3.39803300
C        7.26368000      6.79663000      2.52285000     -0.83190600     -0.29323400     -0.69251900
Fe       2.90190000      1.81561000      3.85397000      0.00153800     -1.55632900      0.94980800
Fe       6.34161000      7.68116000      3.93465000      0.48842700      1.33050200     -0.79783900
Fe       5.00702000      1.51294000     -0.27534000     -0.43271500     -1.75784500      0.18864000
Fe       8.13110000      3.39564000     -0.23014000     -0.23497700     -1.33009500     -0.66980300
Fe       2.62164000      1.84851000      1.05626000      1.19887900     -1.30910100     -0.79156100
Fe       6.13707000     -0.70081000      2.62698000      1.53182300     -1.02049300      0.38046700
Fe       5.03434000      1.44434000      2.55135000     -0.58796200     -0.31167300     -0.60698000
Fe       8.13063000      3.44219000      2.58929000      1.94048500      0.11435100     -0.10189700
Fe       3.27192000      6.07496000      3.62315000      0.63216900     -1.86052000      3.59090600
Fe       5.94713000      3.31833000      3.93473000     -0.32928500      1.80482200      0.15932100
Fe       5.50956000      5.66561000     -0.26567000      1.01361300      0.73844100     -2.88549100
Fe       8.98609000      7.49855000     -0.09256000     -0.77341300      0.37032800     -0.40871400
Fe       3.40700000      5.94910000      0.81569000     -2.54433000      1.60153500      0.99974600
Fe       5.95792000      3.22715000      0.95031000      0.46020300      1.04617900      0.98827900
Fe       5.61210000      5.80571000      2.37410000     -1.02435200     -1.00826900      0.39200400
Fe       8.91702000      7.51348000      2.81446000     -0.15276500      0.98011400     -1.08781400
Fe       7.28339000      1.23466000      3.94267000      0.72651700     -1.29883400      1.08987600
Fe       1.73743000     -0.07591000      5.42680000      0.88170400     -0.93875600      0.17044800
Fe       0.56490000      2.16791000     -0.34026000      0.07531900     -0.04733000      0.48762000
Fe       3.70190000      3.60856000     -0.33485000     -0.25843000      1.07515800     -0.66675000
Fe       7.33514000      1.22345000      1.08568000      0.10836500     -0.73680200      0.14281900
Fe       1.80363000     -0.21197000      2.77560000     -0.15674300      0.14787300     -0.85580000
Fe       0.53817000      2.06284000      2.49664000     -0.73561000     -0.43645200      0.09864600
Fe       3.87409000      3.81922000      2.44405000     -0.09967900     -0.12112600     -0.85866800
Fe       7.85438000      5.46299000      3.91603000      0.39179200     -0.90121900     -1.24528200
Fe       1.29814000      4.09280000      3.78061000      0.56072800      0.47902200      0.21170100
Fe       1.02076000      6.30615000     -0.19326000      2.36248400      1.67808900     -2.65636600
Fe       4.17021000      8.06681000     -0.39228000      0.22719100      0.15376800     -0.43653100
Fe       7.67407000      5.44745000      1.21253000     -0.59643600      2.08637300     -0.93059600
Fe       1.59650000      4.12841000      1.13954000     -0.29221400     -0.29767500     -0.27808800
Fe       1.07708000      6.33250000      2.44706000     -0.26991700     -0.09006500     -0.04214700
Fe       4.40782000      7.92948000      2.09543000      0.54423100      1.36584500      1.12142500
40
Lattice="8.890925409 -1.183523202 0.161023337 0.325053677 8.759513151 -1.754512784 0.000050380 -0.004164971 5.455775848" Properties=species:S:1:pos:R:3:forces:R:3 stress="0.0100021930540775 0.0103736065345714 0.0030693931590566 0.0103736065345714 0.0109626489534736 -0.0101489246909090 0.0030693931590566 -0.0101489246909090 -0.0017768515278447" energy=-336.4475650000 pbc="T T T" step=8600
C        2.10467000      2.91195000      2.45692000      0.02298300      0.79367000      1.53931600
C        8.96525000      4.11186000      1.16292000      1.61680500      0.83893200     -0.99730900
C        2.73916000      7.25724000      2.46667000      0.11158100      0.28146900     -2.17129300
C        6.49889000      2.14866000      2.68154000     -0.08927700      0.14170900     -1.81784200
C        4.63601000      4.74273000      3.89439000     -0.02235200     -0.49309000     -0.14526400
C        7.40342000      6.71802000     -0.49082000     -1.35238100     -0.01658300      0.38331000
C        4.62616000      4.74859000      1.14445000      0.25755700      0.37074700     -2.31458800
C        7.07160000      6.79807000      2.30813000      0.44574400     -0.66196600      0.14246400
Fe       2.54808000      1.75591000      4.12184000      0.05723300      0.64266800     -0.29266100
Fe       6.12413000     -0.80194000      5.41151000      1.21702100     -1.03919900      0.13173900
Fe       4.71563000      1.30504000      0.05948000      0.49599400      1.40781500      0.18640700
Fe       8.40926000      3.12800000     -0.35227000     -0.77268300      0.70489000     -0.02297100
Fe       2.52863000      1.49507000      1.45046000      0.97299800     -0.35955000     -2.05777700
Fe       6.40967000     -0.81044000      2.60719000     -0.29723500      0.06978500      0.34211400
Fe       4.70751000      1.29746000      2.79068000      1.31521800      1.65170600     -1.42166800
Fe       8.13238000      3.28702000      2.52849000     -0.25452000     -1.18484200      0.61419600
Fe       3.37497000      6.17920000      3.75581000      0.19999300     -1.01660500      0.94615700
Fe       6.09063000      3.39448000      3.92562000     -1.63967100      1.48430000      0.98297000
Fe       5.58226000      5.87361000     -0.26050000      0.01074400     -1.28348900     -0.23625000
Fe       9.02076000      7.59449000     -0.36056000      0.24081600      0.89326000     -0.25408300
Fe       3.40831000      6.31087000      0.93008000     -0.36090000     -0.58924600      0.70110800
Fe       6.10388000      3.31466000      0.98688000     -0.56517300      0.14882200      0.25034800
Fe       5.60773000      5.48609000      2.43807000      0.53522900      1.52647300      0.64801400
Fe       8.60909000     -0.96990000      4.14373000     -0.92724400     -0.55764100      0.21585200
Fe       7.10845000      1.20349000      4.14498000      0.10289500     -0.72423400      0.22166200
Fe       2.12809000      8.47577000      3.64603000     -0.11789900      0.55539700      1.23682800
Fe       0.45279000      2.13270000     -0.16899000      0.49585500     -0.44612700      0.06800700
Fe       3.58204000      3.74519000     -0.13766000      1.31536600      0.37830900     -1.16206300
Fe       7.26451000      1.17226000      1.21269000     -0.53183100     -0.61765200      0.34728400
Fe       1.74698000     -0.19878000      2.80658000      0.51684700     -1.24911700     -0.14511100
Fe       0.41018000      2.12610000      2.51655000     -1.02424900     -0.13468600      0.75535500
Fe       3.77953000      3.76021000      2.38148000      0.22780300     -0.68055900      2.08274800
Fe       7.74125000      5.39157000      3.66016000      0.41758900      0.91204900      0.38234800
Fe       1.65440000      4.22218000      3.78938000     -0.56805300      0.18357300      0.00997900
Fe       1.13033000      6.57008000     -0.22647000      0.92156200     -1.02908700     -0.80635100
Fe       4.43616000      8.03374000     -0.47009000     -0.88284200      0.61105700      0.89647200
Fe       7.91209000      5.65677000      1.01380000     -1.26627000      0.12908300      0.38237500
Fe       1.55845000      4.02673000      1.05481000     -0.57097000      0.56061800     -0.39397300
Fe       1.06152000      6.24067000      2.40072000      0.60428000      0.61293800      0.35312400
Fe       4.08963000     -0.31655000      4.03410000     -0.85856300     -2.81559900      0.41902800
40
Lattice="8.873016470 -1.280563454 -0.031565914 0.326577548 8.800288238 -1.476183548 0.000050395 -0.004166151 5.457321632" Properties=species:S:1:pos:R:3:forces:R:3 stress="-0.0097241338248102 0.0059464729405110 0.0007468652173590 0.0059464729405110 0.0252919928677477 0.0041107639820941 0.0007468652173590 0.0041107639820941 0.0082213532019342" energy=-335.9327820000 pbc="T T T" step=8800
C        2.14865000      2.74879000      2.75570000      0.69364300      0.62156300     -0.53697900
C        9.06211000      4.12936000      1.61552000      2.04335600     -0.47439000     -1.89102400
C        2.94093000      7.23176000      2.76569000      0.74040100      1.07910200     -0.15343400
C        6.85127000      2.20363000      2.77031000      0.81994800      1.45616000      0.57059200
C        4.61793000      4.63329000      4.30421000      0.12246100      1.19632200     -1.36641300
C        7.21082000      6.56797000      0.11932000      1.09806100      1.05102200      0.35424500
C        4.71253000      4.87312000      1.51254000     -0.04505700      0.85807600     -1.22663800
C        7.22043000      6.66645000      2.91049000      0.72489300     -0.65398000     -0.79047100
Fe       2.52698000      1.81614000      4.26545000      1.55335900     -1.16101700      0.77991600
Fe       6.57716000      7.82470000     -1.22245000      1.04928900      0.24719700      0.09343500
Fe       5.24668000      1.46854000      0.14119000     -1.11391800      0.47543100     -0.44826200
Fe       8.16292000      3.05339000      0.20984000      0.06940700      0.01900600     -0.18353700
Fe       2.87975000      1.41685000      1.42732000     -0.10943500      1.55604200     -0.01342300
Fe       6.36525000     -0.89685000      3.00010000      0.56856700     -0.65576700     -0.46825100
Fe       5.18631000      1.55858000      2.73793000     -2.72884400     -1.36589700      0.80516800
Fe       8.33902000      3.35781000      3.07608000     -0.02716700     -1.69558200      0.27494300
Fe       3.31512000      6.10096000      4.20588000      0.53447800     -0.34654100      0.20481000
Fe       6.08003000      3.48223000      4.09229000     -0.19900000     -0.10000100      1.09469000
Fe       5.50296000      5.96395000     -0.00586000     -0.73890800     -2.24600200      1.14790200
Fe       8.65677000     -1.23750000      1.50562000     -0.73126200     -1.09588100      0.01019000
Fe       3.39829000      6.18668000      1.20542000     -0.86494200      0.26397200      0.93451100
Fe       6.01188000      3.54878000      1.53074000      0.94714500     -0.83431700     -0.91355100
Fe       5.52228000      5.92139000      2.92867000     -1.00074400     -1.23155400     -0.44517800
Fe       8.97186000      7.42192000      2.83096000     -0.01588900      0.27657900     -0.30535000
Fe       7.29550000      1.12122000      4.28395000     -0.09424800     -0.42148200     -0.37126700
Fe       2.11117000      8.39607000     -1.22034000      0.94524200      0.08266900     -0.55415400
Fe       0.51097000      2.06192000     -0.01316000     -0.02544200     -0.49781000      0.62210700
Fe       3.64159000      3.75826000      0.15569000      0.74109700     -0.10882900     -0.09210300
Fe       7.15013000      0.93056000      1.44911000      1.09604500      0.22441000     -0.35318100
Fe       2.07359000     -0.24104000      2.93527000     -0.74457000     -0.70777700      0.31990300
Fe       0.44376000      1.87086000      2.66435000     -0.11028600      0.53885400      0.96048800
Fe       3.89262000      3.78249000      2.71258000     -1.27039700     -0.72939700      1.60695300
Fe       7.75526000      5.29132000      4.25365000     -0.04089200      1.27160300     -0.57673500
Fe       1.68066000      4.14897000      4.07534000     -0.74232900      0.03307300      0.56637900
Fe       1.04579000      6.39818000     -0.15039000      0.13634700     -0.79107100      1.52875100
Fe       4.51278000      8.18325000      0.12495000     -0.03311200      0.36371200     -0.35181000
Fe       7.65587000      5.26868000      1.43313000     -0.14330500      2.26845400      0.81787900
Fe       1.49920000      3.80936000      1.39138000     -0.17969700      1.59628900     -0.47587600
Fe       1.33136000      6.36055000      2.87511000     -1.80431900     -0.14431400     -1.17714000
Fe       4.30481000     -0.41332000      4.31510000     -1.11997300     -0.21792500      0.00191700
40
Lattice="8.610173760 -1.496544615 -0.141580522 0.321823621 8.671882571 -1.156791372 0.000051843 -0.004285881 5.614157911" Properties=species:S:1:pos:R:3:forces:R:3 stress="-0.0386976371295651 0.0068373672212723 -0.0007783536306397 0.0068373672212723 -0.0236142440209873 0.0052745370395909 -0.0007783536306397 0.0052745370395909 0.0029283974690646" energy=-336.4679460000 pbc="T T T" step=9000
C        2.05468000      2.87923000      3.15626000     -1.64587700     -1.09182100      0.39927200
C        0.20762000      5.46945000      1.81393000      1.40880700     -1.75280300     -0.11381000
C        2.72482000      7.05498000      3.20439000     -1.16804800      0.07033500     -0.13627000
C        6.26581000      1.94323000      3.18690000      1.27193300      1.56897200     -0.78217400
C        4.41518000      4.55023000      4.60378000      0.36870300     -0.10721100      1.72390100
C        7.06636000      6.26361000      0.57882000     -0.14963800      0.49966800     -2.41082300
C        4.51413000      4.51425000      1.82958000      0.74215900     -0.12655700     -0.63496200
C        6.89461000      6.34452000      3.27943000      2.70771100     -0.45820200     -0.27815000
Fe       2.74400000      1.64533000      4.55246000     -0.71518700     -0.01472200     -0.54701700
Fe       6.46280000      7.47165000     -1.04231000     -0.22194400      1.00154300      2.23191000
Fe       4.85737000      1.08097000      0.05418000     -0.75793800      0.21609000      1.32150400
Fe       7.84324000      2.85781000      0.28366000      0.11132900      0.43982000      0.60369500
Fe       2.52525000      1.73226000      1.57228000     -0.31420000     -0.55762900      0.45270800
Fe       6.51583000      7.42505000      1.81855000     -0.76376200      1.94006100     -0.15988300
Fe       4.60589000      1.35702000      2.91912000     -1.48590100     -2.13838100     -0.00573400
Fe       7.96927000      2.92850000      3.21417000     -1.17653600     -0.46963000     -0.26014100
Fe       3.23067000      5.96024000     -0.89935000     -0.62335300     -0.33502200     -0.76816700
Fe       5.78661000      3.26714000      4.74828000      0.56797900     -1.16998800     -1.33213400
Fe       5.30672000      5.46938000      0.42954000      0.67739500      0.01798200      0.03889300
Fe       8.84928000      7.09780000      0.18129000     -0.60252600      1.07126100      1.45190300
Fe       3.23636000      5.89260000      1.83069000     -0.72568500      0.51295800     -0.39020300
Fe       5.78087000      2.99338000      1.64842000      0.25196300      1.28982200      0.40864500
Fe       5.44230000      5.34746000      3.25709000     -1.30232100     -0.16650100     -0.38643300
Fe       8.36979000     -1.44294000      4.28092000      0.08079500     -0.18452100      0.04442600
Fe       6.86135000      0.84310000      4.45491000      0.72101400     -0.84013600      0.51661600
Fe       2.13559000      8.32308000     -1.09714000      0.27256100      0.53968500     -0.10956500
Fe       0.33639000      2.03749000      0.36712000      0.43151500     -0.67366700     -0.21639600
Fe       3.65812000      3.42132000      0.49991000     -0.57276100      1.09214800     -1.08283000
Fe       6.92855000      0.74803000      1.58369000     -0.34753200      0.39443300      0.53051600
Fe       2.03390000     -0.14808000      2.86929000     -0.56424100     -1.22073500      1.00082800
Fe       0.32181000      2.05976000      3.18137000      0.44430400     -0.61920700     -0.30810400
Fe       3.57757000      3.76693000      3.21108000      0.13874400     -1.06954000     -0.11243500
Fe       7.64309000      5.21778000     -0.87588000     -0.47724300     -0.83936800     -1.05681400
Fe       1.27533000      3.86620000      4.79821000      0.95649500      0.48460900     -0.87445600
Fe       1.21880000      6.39457000      0.30497000      0.04832400     -0.84523200      1.54794500
Fe       4.06776000      7.77712000      0.22172000      1.51211100      0.94637900      1.14427500
Fe       7.57378000      5.13916000      1.92290000     -1.43011900      1.00468100     -0.02013100
Fe       1.36575000      4.03376000      1.79855000      0.56361600     -0.12902500     -0.10301100
Fe       1.00416000      6.14564000      3.48744000      1.03150800      0.65591900     -0.84632200
Fe       4.40944000      7.78672000      3.18788000      0.73584500      1.06353100     -0.48107400
40
Lattice="8.743106680 -1.827209543 0.092815755 0.319332191 8.605020846 -1.417075184 0.000052104 -0.004307464 5.642430224" Properties=species:S:1:pos:R:3:forces:R:3 stress="0.0003989073279669 -0.0000712967581576 -0.0090406511321023 -0.0000712967581576 -0.0299246281480847 -0.0108584282349483 -0.0090406511321023 -0.0108584282349483 0.0073180882501873" energy=-335.6138880000 pbc="T T T" step=9200
C        1.91692000      2.53207000      3.32187000     -0.29342300      0.16613400     -1.18141000
C        0.28189000      5.02944000      1.65434000     -1.61663600      1.86062300     -0.20535900
C        2.89505000      6.90316000      3.14112000     -1.01204000      1.07912000     -1.82491700
C        6.20216000      1.70420000      3.19479000      0.34825100      1.28839000     -0.13874900
C        4.57661000      4.19791000      4.47329000      1.36506500      0.39071900      0.94553200
C        7.33378000      5.93150000      0.18639000      0.07015100      0.62603700      0.53949500
C        4.41913000      4.21043000      1.75230000      0.26082200      1.36502900     -0.36495300
C        7.39511000      5.96097000      3.13745000     -0.13216700     -0.07898300     -0.16688300
Fe       2.46856000      1.42886000      4.76358000      0.12272800     -0.27472200     -0.46380100
Fe       6.40246000     -1.32402000      0.40906000      0.27003500     -1.16475000     -0.75359600
Fe       4.60426000      0.92405000      0.43133000      0.32340700      0.81890000     -0.65393300
Fe       7.96916000      2.43103000      0.44848000     -0.01540700     -0.25599700     -0.56618000
Fe       2.46279000      1.53380000      1.66941000      0.06191400     -1.09981900      0.79179800
Fe       6.76660000      7.12295000      1.74163000      0.01735200      0.59069300     -0.91014900
Fe       4.58566000      0.91301000      2.95192000     -1.07531800      0.47282900      0.92775800
Fe       7.92869000      2.46473000      3.30675000      1.20325200      0.16157500     -0.97763400
Fe       3.37299000      5.59572000      4.18164000      0.58065600     -0.46298800      3.63156700
Fe       6.10111000      3.02779000      4.79623000     -1.10468500     -1.06373700     -0.69178000
Fe       5.58331000      5.09351000      0.13904000     -0.49205500      1.03449600      1.48742200
Fe       0.52430000      8.36027000      0.44147000     -1.22926200      0.33565500     -1.26904200
Fe       3.18841000      5.73417000      1.68741000      2.10677100     -0.66404500     -0.59544400
Fe       5.90112000      3.09845000      1.90008000     -0.25592500     -0.96696600     -0.91974700
Fe       5.68159000      5.24636000      2.92473000     -1.68407200     -0.48827700      1.34689200
Fe       8.68152000     -1.76510000      4.55860000      0.50749500     -0.36960200      0.58532000
Fe       6.78322000      0.57605000      4.51436000      0.43021300     -1.06265700      1.05737500
Fe       2.49101000      7.93948000     -1.00774000     -1.07529800      0.75837800      0.10430500
Fe       0.25483000      1.83012000      0.42619000     -0.10591300      0.10800000     -0.34001500
Fe       3.46922000      3.51941000      0.32594000      0.46419700     -0.33920000     -0.57386000
Fe       6.72054000      0.68423000      1.61550000      0.64632100     -0.63357200      0.31590400
Fe       2.35610000      8.14851000      1.78331000      0.47422600     -0.31353000      0.14319800
Fe       0.20435000      1.91606000      3.09954000     -0.47681700     -0.26093400     -0.10127300
Fe       3.50889000      3.41754000      3.26565000      1.14087200     -0.66726000     -1.85064000
Fe       7.99529000      4.67899000      4.46285000     -0.35442300      0.58284900      0.43112900
Fe       1.32389000      3.75864000      4.65811000     -0.49307700      0.20314500     -0.60915100
Fe       1.44375000      5.84896000      0.17947000     -0.61317600      0.83039900      0.22916300
Fe       4.40218000      7.54498000      0.36284000      0.43717900     -0.56217200     -0.39709200
Fe       7.81848000      4.83879000      1.57780000      0.75315800     -1.65216100      1.17633800
Fe       1.48597000      3.72891000      1.63371000      0.12221900     -1.68596300      0.77647000
Fe       1.21112000      5.69062000      3.09359000      0.19682600      2.11928400      0.88355800
Fe       4.30567000     -0.83269000      4.50206000      0.12658100     -0.72492100      0.18238400
40
Lattice="8.786681688 -1.929607718 -0.037946283 0.321957636 8.675571378 -1.233956256 0.000051384 -0.004247936 5.564453865" Properties=species:S:1:pos:R:3:forces:R:3 stress="0.0218763519927853 -0.0044904973941843 0.0029392264873088 -0.0044904973941843 0.0036482244691131 0.0068418111757333 0.0029392264873088 0.0068418111757333 0.0144843642751564" energy=-337.6964340000 pbc="T T T" step=9400
C        1.90932000      2.81119000      3.14068000     -0.44149600     -0.65685500      0.12288600
C        0.19905000      5.34386000      1.77123000     -1.01963700      0.82630400     -0.02304800
C        2.87289000      6.72536000      3.16730000      1.15944100      2.37671300      0.35453500
C        6.35768000      1.53518000      3.14941000     -0.14295100      1.31994500     -1.00977600
C        4.56281000      4.24504000      4.46471000     -0.08637900     -0.13534700      1.63900400
C        7.21783000      6.11207000      0.40582000     -0.63034200     -0.61013000     -0.29557000
C        4.53470000      4.18348000      1.68072000     -0.80367100      0.21843800      0.40930300
C        7.04166000      5.97966000      3.23427000      0.44028600     -0.00590000     -0.63105000
Fe       2.42961000      1.35294000      4.43410000      0.18611700      0.99767500      0.72220400
Fe       6.48478000      7.14242000     -0.95442000      0.17727000      0.52948500     -0.05291300
Fe       4.72600000      0.90048000      0.31819000     -0.10811300      0.31172100     -0.28663800
Fe       7.95094000      2.32131000      0.17087000      0.11398200      1.23079000      0.92155900
Fe       2.32773000      1.46848000      1.75867000      0.31806000     -0.09265000     -0.71377300
Fe       6.61315000      7.24712000      1.81759000     -0.06032100     -0.60769300     -0.25472800
Fe       4.62366000      0.95509000      2.87873000     -0.58659300     -0.02945700      0.92626500
Fe       7.93483000      2.52995000      3.09584000      1.06640200      0.41576800      0.02463400
Fe       3.23767000      5.61766000      4.59401000      0.31305900     -0.01771900      0.90134300
Fe       5.74508000      2.72243000      4.54023000      0.39073100      0.47295400      0.21395700
Fe       5.55372000      5.09347000      0.39325000     -1.11368800     -0.32690600     -0.84262600
Fe       8.98223000      6.69536000      0.39598000      0.44888600      0.94472200     -0.00434800
Fe       3.35233000      5.80770000      1.65567000     -0.10097600     -0.95321700     -0.81837700
Fe       5.83322000      2.81735000      1.62905000      0.22111800     -0.19600600      0.23604100
Fe       5.32336000      5.18909000      3.09929000      0.89627900      0.22854700     -0.26562400
Fe       8.52077000     -1.83813000      4.51969000      0.19612400     -0.81119100     -0.15734300
Fe       6.76259000      0.32676000      4.45391000      0.78563400      0.56587400      0.98768300
Fe       2.39796000      8.20754000     -0.86121000     -0.32955400     -0.76190800     -0.58300700
Fe       0.14420000      2.05806000      0.30282000      1.20849400     -0.61629600      0.19759600
Fe       3.40173000      3.21740000      0.29971000      1.13624400      0.97328100      0.39877200
Fe       7.04656000      0.45902000      1.69895000     -0.82813900      0.05796600     -0.49462300
Fe       2.22795000      8.21247000      1.92543000      0.03845100     -1.06432700     -0.37593000
Fe       0.19110000      1.90898000      3.11048000      0.25129500      0.40035800      0.09228600
Fe       3.71439000      3.24547000      3.17800000     -0.60348200      0.39641900     -1.31371900
Fe       7.67138000      4.76596000      4.57448000      0.07957600     -0.26683600     -0.35449500
Fe       1.36248000      3.89018000      4.62366000     -0.09087700      0.43993700     -0.66675600
Fe       0.96467000      6.34498000      0.31330000      0.93088000     -0.86059900      0.35836400
Fe       4.43535000      7.70367000      0.45156000     -0.44050400     -0.89499000     -0.44261900
Fe       7.66999000      4.97774000      1.75584000      1.05523500     -2.27827400      1.23084800
Fe       1.46250000      3.99835000      1.72138000     -0.17089900     -0.33557400      0.01551600
Fe       1.18345000      6.21879000      3.31837000     -2.41814800     -0.66155400     -0.64530800
Fe       4.28286000     -0.93185000      4.35318000     -1.43779100     -0.52346800      0.47947300
40
Lattice="8.584913337 -1.818934563 0.036546426 0.321028131 8.650661897 -1.365997246 0.000053316 -0.004407664 5.773684439" Properties=species:S:1:pos:R:3:forces:R:3 stress="-0.0078165101988374 -0.0001671288884868 -0.0006993735748115 -0.0001671288884868 0.0040530674722098 0.0036006204794021 -0.0006993735748115 0.0036006204794021 0.0381711159070617" energy=-334.9166740000 pbc="T T T" step=9600
C        1.75410000      2.72671000      3.12444000      2.53036400      2.30704300     -1.73102200
C        8.54298000      3.61198000      1.75970000      0.20850300      1.03576000      0.92279700
C        2.69949000      7.03152000      2.90635000      0.29327700      1.07329300      0.71311000
C        6.28159000      1.86566000      3.25484000     -3.32159100     -1.42061800      0.36866700
C        4.43762000      4.46232000      4.53814000     -0.76632200      0.61588800      0.48055200
C        7.10373000      6.26676000      0.34312000     -1.75782300     -0.72624500      1.06461900
C        4.46080000      4.33843000      1.66441000      0.14577400      0.87610000     -0.72636700
C        7.00636000      6.16653000      3.22759000     -0.64721900      0.73652900      1.43797800
Fe       2.40794000      1.84617000      4.54446000      0.61923500     -2.42956100      0.77387400
Fe       6.46341000      7.32960000     -1.00407000     -0.32548000      0.37348500     -1.48381900
Fe       4.89977000      1.26260000      0.31043000     -1.35989400     -0.22071700      0.32557800
Fe       7.86462000      2.39725000      0.48313000     -1.14514300      1.03048800     -1.43468600
Fe       2.40514000      1.78262000      1.43326000      0.20310800     -0.74376100      1.40965300
Fe       5.94778000     -1.18038000      3.16092000      0.41912000     -0.62718100      0.04302800
Fe       4.38549000      1.21278000      3.02549000      1.50786000     -0.44537000      0.89380000
Fe       7.68200000      2.77615000      3.49558000      3.27980100      1.58896100     -0.79611900
Fe       3.21978000      6.10536000      4.51017000      0.29547400     -1.15529100      0.70083300
Fe       5.66922000      3.08557000      4.88728000      0.31875100     -0.01014300     -1.00379800
Fe       5.29792000      5.44809000      0.31000000      0.24309100     -1.02768000     -0.63072200
Fe       8.42395000     -1.66761000      1.62405000      0.93149100      1.18811900      0.98470100
Fe       3.32438000      5.88363000      1.54879000     -1.24202200      0.75648300      0.54765600
Fe       5.84943000      3.08757000      1.82025000     -0.18058600      0.36025100     -0.71981600
Fe       5.28410000      5.34651000      3.12423000      0.61862000      0.46222800      0.32045400
Fe       8.32008000     -1.52689000      4.64627000     -0.04256900     -0.64295800     -0.78539400
Fe       6.76699000      0.59228000      4.71515000     -0.02459800      0.83538100     -0.66201300
Fe       1.71905000     -0.21699000      0.13823000      0.79335100     -0.76441200     -0.34690100
Fe       0.36638000      2.03269000      0.28206000     -0.27601200      0.93915500     -0.47082700
Fe       3.13886000      3.67992000      0.09322000      1.56157400      0.84005100      0.40954300
Fe       6.76472000      0.75013000      1.75053000     -0.05901300     -1.01335300      0.36002600
Fe       1.91492000     -0.21317000      2.99107000     -0.07765200     -0.44367400      0.76648700
Fe       0.15761000      2.11340000      3.05339000     -1.95103400     -1.24262300      0.05089800
Fe       3.71339000      3.41037000      3.04985000     -2.11044700      0.86496500      0.94710600
Fe       7.65768000      4.86680000     -0.85198000     -1.70130000      0.31919500     -2.11307800
Fe       1.14911000      4.01005000      4.50881000      0.05121000      0.84083000      0.37103100
Fe       0.95941000      6.50446000      0.16156000      2.22076100     -1.41034500      1.33778700
Fe       3.88287000     -0.66762000      1.66626000      0.05252300     -0.51877000     -0.39612900
Fe       7.53124000      5.19648000      1.81926000      0.32207300     -1.25681300     -0.24830000
Fe       1.26393000      4.12772000      1.67566000      1.10403800     -0.72485600      1.08685900
Fe       1.03825000      6.30984000      3.31871000     -0.49851100     -0.18579400     -1.32795500
Fe       4.02498000     -0.61851000      4.82807000     -0.23278700     -0.03404000     -1.44009200
40
Lattice="8.524813765 -2.086939973 0.198712580 0.323535017 8.718344059 -1.504853315 0.000052531 -0.004342773 5.688682513" Properties=species:S:1:pos:R:3:forces:R:3 stress="-0.0147245749933961 -0.0134377880335509 0.0089800086299349 -0.0134377880335509 -0.0116270575944500 -0.0041126239517983 0.0089800086299349 -0.0041126239517983 0.0091679841587304" energy=-336.6988950000 pbc="T T T" step=9800
C        1.84415000      2.90047000      3.07181000     -0.51365900     -0.53093200      0.17919400
C        0.33008000      5.71664000      1.56796000     -0.98445000     -0.85958900      0.07461100
C        2.92606000      7.04406000      3.15906000     -0.55769100      0.81449200     -0.40319100
C        6.24704000      1.92237000      3.15170000     -3.76952900     -3.12527300      0.31070100
C        4.37908000      4.34428000      4.65834000     -1.25209400     -0.02774700     -1.59734400
C        7.17832000      6.13659000      0.31480000     -1.13151100     -0.88132800      1.29110100
C        4.54662000      4.50666000      1.76357000     -0.30121500     -0.00750500     -1.22403400
C        7.02060000      6.01712000      3.19702000      0.97494700      0.98137200      0.34567700
Fe       2.37554000      1.64869000      4.56884000      0.26204100      0.97402500     -0.01204800
Fe       6.20134000     -1.41532000      0.58773000     -0.32899800      0.58024600     -1.71842800
Fe       4.49004000      0.96474000      0.41727000      0.23681500      0.18864300     -0.08746300
Fe       7.82385000      2.65663000      0.38414000     -0.33177600     -0.15224300     -0.39765300
Fe       2.36098000      1.64895000      1.63308000      1.09327800     -0.07825800      1.22649400
Fe       6.38764000     -1.43866000      3.29735000     -0.15587800      0.69452400      0.26163200
Fe       4.47172000      1.05521000      3.38937000      0.26867500      0.04814300     -0.75886200
Fe       7.70858000      2.67164000      3.07835000      3.85996100      1.83899200      0.40014700
Fe       3.25767000      5.95217000     -1.07827000      0.19200400     -0.62188200      0.22928100
Fe       5.63130000      2.94236000      4.59700000      0.08768200     -0.38819500      1.00402200
Fe       5.45577000      5.11547000      0.17544000      0.23925000      1.09473000      2.04763300
Fe       0.04654000      0.14987000      1.66617000      0.07518200      0.62590600      0.80658900
Fe       3.33842000      5.92451000      1.60553000     -0.32904200     -0.07593400      1.35235700
Fe       5.41143000      2.86688000      1.72404000      0.88659200     -0.26709800     -0.67154900
Fe       5.46998000      5.04900000      3.27016000     -0.27682800      1.13147900      0.01474600
Fe       8.47440000     -1.75733000      4.93569000     -0.90433000     -0.42908400     -1.17928800
Fe       6.71576000      0.64466000      4.72430000      0.49180700      0.03410500     -0.33349400
Fe       1.90760000     -0.33724000      0.41029000      1.24268700     -0.48820300     -1.01040600
Fe       0.43949000      2.17064000      0.41167000     -0.53102300      1.31087600     -1.06368300
Fe       3.32014000      3.59936000      0.36624000      0.46765300     -0.33506700     -0.74191400
Fe       6.68338000      0.66819000      1.67139000      0.09835200     -0.33367100      0.91395500
Fe       1.93127000     -0.25098000      3.33479000      0.29967400     -0.96226600     -0.27621100
Fe       0.18348000      2.10457000      3.00279000     -0.48930800      0.18715200      0.70223300
Fe       3.48176000      3.62514000      3.04344000      0.85692000     -0.16584100      1.89492600
Fe       7.72484000      4.96613000      4.65943000      0.19201200     -1.30787600     -0.79706700
Fe       1.14786000      4.22877000      4.28908000     -0.01375300      0.10949500      1.22139300
Fe       1.33359000      6.61456000      0.30503000      0.25163500     -0.57011900     -0.57022700
Fe       4.31376000      7.68662000      0.62022000      0.50121500      1.14660600     -2.14071900
Fe       7.42498000      4.88592000      1.71846000      0.99419400     -0.19796500      0.30680500
Fe       1.56671000      4.26850000      1.73138000     -1.82874600     -0.43107100     -0.73162700
Fe       1.11428000      6.48609000      3.07194000      0.68951300      0.22158300      0.51518800
Fe       4.36613000     -1.01306000      4.62603000     -0.56225700      0.25477800      0.61652300
40
Lattice="8.655970793 -2.168289660 0.335317748 0.331254771 8.926271613 -1.444176286 0.000050775 -0.004197601 5.498518106" Properties=species:S:1:pos:R:3:forces:R:3 stress="0.0050495181544384 -0.0124965871896494 0.0167419056243708 -0.0124965871896494 0.0052221083633654 -0.0017129010258678 0.0167419056243708 -0.0017129010258678 -0.0089147786185977" energy=-335.6802480000 pbc="T T T" step=10000
C        1.63175000      3.21147000      3.06035000      2.94172200      0.76357900      0.61687600
C        0.33833000      5.90390000      1.48253000     -0.99153200     -0.72921400      0.73254400
C        3.01449000      7.48865000      2.97362000     -2.15654400      0.27708900      0.38329100
C        6.34279000      2.01694000      3.08927000     -1.30235400     -1.20486600      0.91996900
C        4.32419000      4.71864000      4.58350000      1.03275300     -0.05362500      1.14243800
C        7.13458000      6.29089000      0.45944000     -0.04438600     -0.94207700      0.42834700
C        4.36954000      4.62656000      1.92888000     -0.07398300     -0.30522900     -0.55375500
C        7.24268000      6.22106000      3.22293000     -1.12090500      0.79504200      3.16710900
Fe       2.48562000      1.78122000      4.49310000     -0.89856300      1.16865600     -0.27080800
Fe       6.26146000     -1.32502000      0.65301000      0.46409000     -1.21367400     -1.41310900
Fe       4.48722000      1.04942000      0.49740000      0.81203500      0.72119400     -0.38479000
Fe       7.63286000      2.74155000      0.50511000      0.09063500      0.22841800      1.35631900
Fe       2.47094000      1.68401000      1.66144000     -0.42553200      1.53783900      0.23808800
Fe       6.40967000     -1.53783000      3.34402000     -0.80692000      2.02458000     -0.13095900
Fe       4.39404000      1.14714000      3.27685000      1.56730200      0.80184600     -0.69738800
Fe       7.82392000      3.02412000      3.40485000      0.33324800     -0.64442300     -1.64274400
Fe       3.48763000      6.38093000      4.44649000     -1.06121300     -0.19707400      0.33099200
Fe       5.64829000      3.13330000      4.63837000     -0.39684600     -0.18266400     -0.23127500
Fe       5.30078000      5.56160000      0.63753000      1.26110400     -0.42460800     -1.61173500
Fe       8.60672000     -1.91310000      2.05891000     -0.39095400      0.70661100     -0.90018400
Fe       3.23649000      6.15204000      1.74191000     -0.26120300     -0.27757300     -0.66231800
Fe       5.27768000      2.92130000      1.85126000      1.10279500      0.40006100     -0.47234900
Fe       5.55391000      5.31784000      3.30851000     -0.36259400      0.23915600     -0.53904200
Fe       8.59673000     -1.97642000      4.61155000      0.16340200      1.32727700      0.67935000
Fe       6.66676000      0.75100000      4.62237000      0.27251000      0.12000400     -0.34621500
Fe       1.75068000     -0.10563000      0.16877000      1.44163900     -1.21825000      0.68501300
Fe       8.73858000      0.25182000      0.45909000      0.66835200     -0.76481000      0.65713000
Fe       3.49962000      3.67629000      0.35768000     -1.03801300      0.24407900      0.98621800
Fe       6.72038000      0.50596000      1.88972000     -0.05884300      1.40739400      0.48557000
Fe       1.97328000     -0.10996000      2.99948000      0.67419200     -1.73459200      0.50104700
Fe       0.25577000      2.26897000      2.95948000     -3.06145900     -1.53399800     -0.05704300
Fe       3.39778000      3.77404000      3.27632000     -0.43757500      0.24078400     -0.75142100
Fe       7.87190000      4.95642000     -0.74805000     -1.37027600      1.30909400     -0.34628200
Fe       0.95444000      4.46891000      4.43224000      1.08851500     -0.34585300     -0.33533500
Fe       1.24527000      6.87289000      0.15758000      0.80236700     -0.72002100      0.64352700
Fe       4.15543000     -0.91984000      1.77783000     -0.59355000      0.32207700      0.52065800
Fe       7.67511000      5.14357000      1.94739000      1.03154700     -2.41666300     -2.61434900
Fe       1.29720000      4.26195000      1.52522000     -0.04857600      0.53661400     -0.05067100
Fe       1.16724000      6.67235000      3.09397000      0.93705300      0.22251300     -0.97162400
Fe       4.35385000     -0.77753000      4.43394000      0.21655600     -0.48469300      0.50891300
