57
Lattice="10.031115671927166 7.020262982e-07 0.2070667318068022 3.053103684e-07 7.098308548893333 2.13268761906e-05 0.1784346332952 2.5710877143e-05 8.417619925106411" Properties=species:S:1:pos:R:3:momenta:R:3 pbc="T T T"
C        5.80469167       5.32376092       6.65650775       0.00000000       0.00000000       0.00000000
C        4.47392300       1.77461665       6.01368873       0.00000000       0.00000000       0.00000000
C        6.93626771       1.77462569       4.58954328       0.00000000       0.00000000       0.00000000
C        9.47519471       1.77455939       1.95382837       0.00000000       0.00000000       0.00000000
C        3.19574538       5.32366929       4.03148748       0.00000000       0.00000000       0.00000000
C        1.91823091       1.77451173       0.42613499       0.00000000       0.00000000       0.00000000
C        0.70961684       5.32375458       6.93952233       0.00000000       0.00000000       0.00000000
C        9.48912239       1.77456604       6.20442149       0.00000000       0.00000000       0.00000000
C        0.74747208       5.32383171       2.35527566       0.00000000       0.00000000       0.00000000
Fe       0.90741730       0.48467196       1.46343241       0.00000000       0.00000000       0.00000000
Fe       1.76508795       6.56658588       3.46291830       0.00000000       0.00000000       0.00000000
Fe       3.43781124       2.98822788       1.05068781       0.00000000       0.00000000       0.00000000
Fe       9.24817519       4.04013815       7.30316378       0.00000000       0.00000000       0.00000000
Fe       9.24816393       6.60740857       7.30316719       0.00000000       0.00000000       0.00000000
Fe       3.43783428       0.56090907       1.05068110       0.00000000       0.00000000       0.00000000
Fe       1.76502980       4.08088910       3.46285983       0.00000000       0.00000000       0.00000000
Fe       0.90742968       3.06441927       1.46340185       0.00000000       0.00000000       0.00000000
Fe       0.98996973       0.55000889       5.50605814       0.00000000       0.00000000       0.00000000
Fe       1.84310539       6.73325403       7.69462710       0.00000000       0.00000000       0.00000000
Fe       3.42216728       3.14565411       5.15857319       0.00000000       0.00000000       0.00000000
Fe       9.20466176       4.12258855       3.17694802       0.00000000       0.00000000       0.00000000
Fe       9.20463370       6.52492475       3.17696999       0.00000000       0.00000000       0.00000000
Fe       3.42217786       0.40357406       5.15859017       0.00000000       0.00000000       0.00000000
Fe       1.84309374       3.91428431       7.69461103       0.00000000       0.00000000       0.00000000
Fe       0.98996391       2.99916132       5.50606946       0.00000000       0.00000000       0.00000000
Fe       5.95053782       0.55919612       1.20735063       0.00000000       0.00000000       0.00000000
Fe       6.72394205       6.54175945       3.26231886       0.00000000       0.00000000       0.00000000
Fe       8.40951457       3.09826354       1.00243990       0.00000000       0.00000000       0.00000000
Fe       4.32889282       4.10793481       7.39954091       0.00000000       0.00000000       0.00000000
Fe       4.32889467       6.53957276       7.39954587       0.00000000       0.00000000       0.00000000
Fe       8.40949801       0.45089893       1.00243681       0.00000000       0.00000000       0.00000000
Fe       6.72395405       4.10570728       3.26231123       0.00000000       0.00000000       0.00000000
Fe       5.95054083       2.98996395       1.20735270       0.00000000       0.00000000       0.00000000
Fe       5.88366744       0.47165195       5.52160189       0.00000000       0.00000000       0.00000000
Fe       6.86085549       6.61962796       7.58326745       0.00000000       0.00000000       0.00000000
Fe       8.36732838       3.04100784       5.19197689       0.00000000       0.00000000       0.00000000
Fe       4.28174909       4.03102166       3.01600612       0.00000000       0.00000000       0.00000000
Fe       4.28173593       6.61643650       3.01605881       0.00000000       0.00000000       0.00000000
Fe       8.36729995       0.50819015       5.19196813       0.00000000       0.00000000       0.00000000
Fe       6.86085966       4.02788582       7.58325568       0.00000000       0.00000000       0.00000000
Fe       5.88367251       3.07755108       5.52162557       0.00000000       0.00000000       0.00000000
Fe       0.15112210       1.77459780       3.57478391       0.00000000       0.00000000       0.00000000
Fe       2.36180919       5.32375811       5.77472714       0.00000000       0.00000000       0.00000000
Fe       2.88105001       1.77461121       7.12607279       0.00000000       0.00000000       0.00000000
Fe       9.97342556       5.32374697       5.23464550       0.00000000       0.00000000       0.00000000
Fe       0.33329744       1.77460029       7.75787756       0.00000000       0.00000000       0.00000000
Fe       2.52421365       5.32372725       1.25394224       0.00000000       0.00000000       0.00000000
Fe       2.63814902       1.77457906       3.21845348       0.00000000       0.00000000       0.00000000
Fe      10.00102120       5.32373367       0.82954333       0.00000000       0.00000000       0.00000000
Fe       5.21487906       1.77458088       3.34113826       0.00000000       0.00000000       0.00000000
Fe       7.45124152       5.32375320       5.42172639       0.00000000       0.00000000       0.00000000
Fe       7.81978941       1.77460692       7.39659822       0.00000000       0.00000000       0.00000000
Fe       4.89086403       5.32374756       5.02244142       0.00000000       0.00000000       0.00000000
Fe       5.33857472       1.77460127       7.72074007       0.00000000       0.00000000       0.00000000
Fe       7.55200887       5.32373476       1.12938410       0.00000000       0.00000000       0.00000000
Fe       7.74753510       1.77458940       2.91238191       0.00000000       0.00000000       0.00000000
Fe       5.08000179       5.32373564       1.07135743       0.00000000       0.00000000       0.00000000
