 C Fe                                   
   1.00000000000000     
    10.0311156719271661    0.0000007020262982    0.2070667318068022
     0.0000003053103684    7.0983085488933328    0.0000213268761906
     0.1784346332952000    0.0000257108771430    8.4176199251064112
   C    Fe
     9    48
Direct
  0.5648492426682997  0.7500012866807536  0.7768859040258206
  0.4334860853767097  0.2500029746448845  0.7037527114899162
  0.6820750382411354  0.2500048589601916  0.5284513837193923
  0.9408632162226128  0.2499966494197143  0.2089666179930476
  0.3101996519656562  0.7499895111292001  0.4713018045825002
  0.1904108862164886  0.2499906002343992  0.0459395771798956
  0.0561015277524592  0.7500002779454014  0.8230223782784790
  0.9332659863302631  0.2499957582928700  0.7141172769391335
  0.0695686324297344  0.7500131153425675  0.2780898090419431
  0.0874059794266595  0.0682792925078201  0.1717031765165002
  0.1687172806557165  0.9250901465612792  0.4072365906568743
  0.3406434934756120  0.4209770007759304  0.1164394336754632
  0.9069126163616306  0.5691659853279658  0.8452935953053349
  0.9069114919895932  0.9308395307958479  0.8452931121707279
  0.3406457998108870  0.0790196475550979  0.1164394460175645
  0.1687115997414698  0.5749085834963399  0.4072306703246665
  0.0874072832954130  0.4317105644246201  0.1716985938180445
  0.0870926014247890  0.0774821302455924  0.6519684371437049
  0.1675518675606915  0.9485683058185935  0.9099855447536203
  0.3303986835355509  0.4431532260539510  0.6047017102477689
  0.9112962091610791  0.5807832607393002  0.3549977940111925
  0.9112933690634337  0.9192210990380584  0.3549996170418991
  0.3303996971039022  0.0568527385190821  0.6047046814402935
  0.1675507334347927  0.5514357078973975  0.9099846693685915
  0.0870920023946357  0.4225153740518854  0.6519689224554708
  0.5909151720788791  0.0787782592610411  0.1288951132789719
  0.6637049958165057  0.9215927141014515  0.3712293978989625
  0.8365906173169939  0.4364786898805291  0.0985077155357485
  0.4160918652973703  0.5787170494168804  0.8688168215442030
  0.4160920448816733  0.9212828782127700  0.8688165385590363
  0.8365889668000845  0.0635215856562577  0.0985083334717857
  0.6637062039842093  0.5784050163915966  0.3712293322154314
  0.5909154725367685  0.4212215069132114  0.1288944840165851
  0.5751250913115805  0.0664433000624620  0.6418098279134431
  0.6682248197468315  0.9325608640598052  0.8844400787791363
  0.8235260369974652  0.4284107833698769  0.5965395155340671
  0.4206573995627188  0.5678835164047468  0.3479475055879104
  0.4206559810837155  0.9321132230424474  0.3479528770521865
  0.8235232148488174  0.0715908913887206  0.5965394481204127
  0.6682252552989373  0.5674397762846227  0.8844395955377322
  0.5751255523033395  0.4335588059663518  0.6418117002949192
  0.0075143915582525  0.2500013726718885  0.4244932212143173
  0.2233428927268443  0.7500012744225117  0.6805325391065328
  0.2722716489944939  0.2500017308209443  0.8398679347869950
  0.9836174464597274  0.7499999300162469  0.5976695427284973
  0.0168397835736868  0.2499999234473283  0.9212087666992907
  0.2490975544427509  0.7499988717637990  0.1428368635794071
  0.2563074914057472  0.2499988833523743  0.3760416155001927
  0.9956825917543902  0.7499999512394144  0.0740535442861968
  0.5130342952881300  0.2499990841074186  0.3843010995844393
  0.7316758208375144  0.7500007298672605  0.6260920216251540
  0.7642572392917532  0.2500010060639333  0.8599034772913288
  0.4771646806862382  0.7500001086136184  0.5849183656497986
  0.5161118636314372  0.2500000721648158  0.9045151963113831
  0.7508002441509850  0.7499999777096195  0.1156980672879282
  0.7665312624099957  0.2500004668463119  0.3271296970633276
  0.5043811272829301  0.7500001300209989  0.1148663037467997
 
  0.00000000E+00  0.00000000E+00  0.00000000E+00
  0.00000000E+00  0.00000000E+00  0.00000000E+00
  0.00000000E+00  0.00000000E+00  0.00000000E+00
  0.00000000E+00  0.00000000E+00  0.00000000E+00
  0.00000000E+00  0.00000000E+00  0.00000000E+00
  0.00000000E+00  0.00000000E+00  0.00000000E+00
  0.00000000E+00  0.00000000E+00  0.00000000E+00
  0.00000000E+00  0.00000000E+00  0.00000000E+00
  0.00000000E+00  0.00000000E+00  0.00000000E+00
  0.00000000E+00  0.00000000E+00  0.00000000E+00
  0.00000000E+00  0.00000000E+00  0.00000000E+00
  0.00000000E+00  0.00000000E+00  0.00000000E+00
  0.00000000E+00  0.00000000E+00  0.00000000E+00
  0.00000000E+00  0.00000000E+00  0.00000000E+00
  0.00000000E+00  0.00000000E+00  0.00000000E+00
  0.00000000E+00  0.00000000E+00  0.00000000E+00
  0.00000000E+00  0.00000000E+00  0.00000000E+00
  0.00000000E+00  0.00000000E+00  0.00000000E+00
  0.00000000E+00  0.00000000E+00  0.00000000E+00
  0.00000000E+00  0.00000000E+00  0.00000000E+00
  0.00000000E+00  0.00000000E+00  0.00000000E+00
  0.00000000E+00  0.00000000E+00  0.00000000E+00
  0.00000000E+00  0.00000000E+00  0.00000000E+00
  0.00000000E+00  0.00000000E+00  0.00000000E+00
  0.00000000E+00  0.00000000E+00  0.00000000E+00
  0.00000000E+00  0.00000000E+00  0.00000000E+00
  0.00000000E+00  0.00000000E+00  0.00000000E+00
  0.00000000E+00  0.00000000E+00  0.00000000E+00
  0.00000000E+00  0.00000000E+00  0.00000000E+00
  0.00000000E+00  0.00000000E+00  0.00000000E+00
  0.00000000E+00  0.00000000E+00  0.00000000E+00
  0.00000000E+00  0.00000000E+00  0.00000000E+00
  0.00000000E+00  0.00000000E+00  0.00000000E+00
  0.00000000E+00  0.00000000E+00  0.00000000E+00
  0.00000000E+00  0.00000000E+00  0.00000000E+00
  0.00000000E+00  0.00000000E+00  0.00000000E+00
  0.00000000E+00  0.00000000E+00  0.00000000E+00
  0.00000000E+00  0.00000000E+00  0.00000000E+00
  0.00000000E+00  0.00000000E+00  0.00000000E+00
  0.00000000E+00  0.00000000E+00  0.00000000E+00
  0.00000000E+00  0.00000000E+00  0.00000000E+00
  0.00000000E+00  0.00000000E+00  0.00000000E+00
  0.00000000E+00  0.00000000E+00  0.00000000E+00
  0.00000000E+00  0.00000000E+00  0.00000000E+00
  0.00000000E+00  0.00000000E+00  0.00000000E+00
  0.00000000E+00  0.00000000E+00  0.00000000E+00
  0.00000000E+00  0.00000000E+00  0.00000000E+00
  0.00000000E+00  0.00000000E+00  0.00000000E+00
  0.00000000E+00  0.00000000E+00  0.00000000E+00
  0.00000000E+00  0.00000000E+00  0.00000000E+00
  0.00000000E+00  0.00000000E+00  0.00000000E+00
  0.00000000E+00  0.00000000E+00  0.00000000E+00
  0.00000000E+00  0.00000000E+00  0.00000000E+00
  0.00000000E+00  0.00000000E+00  0.00000000E+00
  0.00000000E+00  0.00000000E+00  0.00000000E+00
  0.00000000E+00  0.00000000E+00  0.00000000E+00
  0.00000000E+00  0.00000000E+00  0.00000000E+00
