57
Time=0.00000000 pbc="T T T" Lattice="9.99724890 0.03266586 0.20084047 0.04636271 7.09133563 0.01094383 0.17260172 0.00843877 8.45301914" energy=-481.96662395 virial="-0.02296634 0.18104840 -0.06428010 0.18104840 -0.01171356 0.06320300 -0.06428010 0.06320300 0.06192322" stress="0.00278433 -0.00008844 0.00021144 -0.00008844 0.00211562 -0.00007891 0.00021144 -0.00007891 0.00252557" Properties=species:S:1:pos:R:3
C 5.83177168 5.52155831 6.63337687
C 4.45033269 1.57161130 6.05150155
C 6.88253117 1.52606569 4.52696031
C 9.45613437 1.89239333 1.95965775
C 3.21955225 5.37360010 4.03823941
C 1.95230999 1.94260907 0.43800766
C 0.71593525 5.31848199 6.95860833
C 9.45549001 1.64346943 6.26952211
C 0.76619808 5.17385414 2.35068354
Fe 0.91406688 0.57053156 1.36704666
Fe 1.76815854 6.53646582 3.39198337
Fe 3.49593523 3.02227072 1.00179586
Fe 9.15103628 4.17218067 7.32959520
Fe 9.34967616 6.76689282 7.31206525
Fe 3.41872724 0.58647338 1.05054416
Fe 1.79301652 4.08005343 3.55315204
Fe 0.91295645 3.15776725 1.50835810
Fe 1.04913860 0.54980973 5.51516082
Fe 1.92024805 6.65202185 7.71586502
Fe 3.39317604 2.99649605 5.19986908
Fe 9.14256436 4.12101207 3.20439556
Fe 9.24658350 6.52164558 3.13242545
Fe 3.40766628 0.31006421 5.06903142
Fe 1.83390101 3.90390786 7.73334408
Fe 0.90181350 2.99979527 5.54716279
Fe 5.93300518 0.57822593 1.17491971
Fe 6.77865341 6.62556631 3.28992345
Fe 8.38782885 3.15123830 0.94865043
Fe 4.31479524 4.16819934 7.36732011
Fe 4.35861782 6.59884406 7.41721344
Fe 8.39250807 0.52689824 1.02050693
Fe 6.67404264 4.17052355 3.25266404
Fe 5.96991850 3.02179911 1.19193031
Fe 5.87697905 0.33884766 5.58700191
Fe 7.00272930 6.59282307 7.65526706
Fe 8.31455419 2.98547398 5.24560731
Fe 4.24151173 3.99074878 3.04361179
Fe 4.35245582 6.55604996 2.98497502
Fe 8.37980806 0.48097334 5.16263068
Fe 6.78752946 4.05725180 7.51527017
Fe 5.86469077 2.93438387 5.42889956
Fe 0.18691315 1.73857089 3.55629487
Fe 2.38253348 5.26667259 5.77053956
Fe 2.86008775 1.71980231 7.16736117
Fe 9.94617260 5.34975598 5.24615467
Fe 0.35152429 1.84410031 7.79690886
Fe 2.54512854 5.33042314 1.24623843
Fe 2.61942170 1.76311622 3.17227812
Fe 9.97438835 5.39327856 0.81847926
Fe 5.17209261 1.74232045 3.30294461
Fe 7.47758132 5.29027635 5.39343524
Fe 7.77169589 1.80640244 7.43052464
Fe 4.89750504 5.20704657 5.04857007
Fe 5.34086945 1.82411727 7.71533921
Fe 7.55158309 5.35762435 1.17769367
Fe 7.73598849 1.87549904 2.92899224
Fe 5.08687942 5.33008432 1.04154170
