55
Lattice="9.964292021886473 2.14058313118e-05 -0.1423019894396486 1.50081317157e-05 7.102412799542711 -1.08309949883e-05 -0.118542806823672 -1.2760615908e-05 8.36654478790598" Properties=species:S:1:pos:R:3:momenta:R:3 pbc="T T T"
C        7.93302122       5.32681418       7.74308107       0.00000000       0.00000000       0.00000000
C        3.12421174       5.32687834       3.96457833       0.00000000       0.00000000       0.00000000
C        1.90580673       1.77561675       0.57654376       0.00000000       0.00000000       0.00000000
C        0.54692334       5.32677635       6.69910713       0.00000000       0.00000000       0.00000000
C        9.19601011       1.77559241       5.97367815       0.00000000       0.00000000       0.00000000
C        1.78500839       1.77553240       4.52499035       0.00000000       0.00000000       0.00000000
C        0.59278448       5.32683402       2.44335981       0.00000000       0.00000000       0.00000000
Fe       0.80661727       0.38886214       1.40100264       0.00000000       0.00000000       0.00000000
Fe       1.63874989       6.59782134       3.48895876       0.00000000       0.00000000       0.00000000
Fe       3.43184424       3.02540843       0.86863627       0.00000000       0.00000000       0.00000000
Fe       9.03291584       3.99118497       6.92710792       0.00000000       0.00000000       0.00000000
Fe       9.03292126       6.66244589       6.92711316       0.00000000       0.00000000       0.00000000
Fe       3.43182309       0.52581128       0.86864226       0.00000000       0.00000000       0.00000000
Fe       1.63876665       4.05586566       3.48895154       0.00000000       0.00000000       0.00000000
Fe       0.80664196       3.16235092       1.40102142       0.00000000       0.00000000       0.00000000
Fe       0.72946986       0.51069294       5.52880562       0.00000000       0.00000000       0.00000000
Fe       1.59368002       6.64137816       7.65488163       0.00000000       0.00000000       0.00000000
Fe       3.31544913       3.02204942       5.07692142       0.00000000       0.00000000       0.00000000
Fe       8.99905536       4.09077565       2.86252519       0.00000000       0.00000000       0.00000000
Fe       8.99904888       6.56290526       2.86252161       0.00000000       0.00000000       0.00000000
Fe       3.31544408       0.52905571       5.07693619       0.00000000       0.00000000       0.00000000
Fe       1.59365811       4.01217942       7.65490045       0.00000000       0.00000000       0.00000000
Fe       0.72949279       3.04048783       5.52875821       0.00000000       0.00000000       0.00000000
Fe       5.84614023       0.56391029       0.84433286       0.00000000       0.00000000       0.00000000
Fe       6.53214785       6.55345515       2.97871849       0.00000000       0.00000000       0.00000000
Fe       8.29158599       2.99559295       0.81516368       0.00000000       0.00000000       0.00000000
Fe       4.07037495       4.11105819       7.20035096       0.00000000       0.00000000       0.00000000
Fe       4.07040111       6.54253796       7.20036344       0.00000000       0.00000000       0.00000000
Fe       8.29155626       0.55564907       0.81515441       0.00000000       0.00000000       0.00000000
Fe       6.53213883       4.10019102       2.97872003       0.00000000       0.00000000       0.00000000
Fe       5.84616092       2.98731912       0.84432974       0.00000000       0.00000000       0.00000000
Fe       5.75408469       0.56364979       5.03857525       0.00000000       0.00000000       0.00000000
Fe       6.50708378       6.56848769       7.14257160       0.00000000       0.00000000       0.00000000
Fe       8.15973982       3.03340992       4.87436473       0.00000000       0.00000000       0.00000000
Fe       4.14581602       4.03837595       2.93871826       0.00000000       0.00000000       0.00000000
Fe       4.14584223       6.61526916       2.93869198       0.00000000       0.00000000       0.00000000
Fe       8.15971160       0.51783076       4.87437203       0.00000000       0.00000000       0.00000000
Fe       6.50706679       4.08515450       7.14258369       0.00000000       0.00000000       0.00000000
Fe       5.75410982       2.98757328       5.03857702       0.00000000       0.00000000       0.00000000
Fe       0.01252771       1.77561380       3.35834747       0.00000000       0.00000000       0.00000000
Fe       2.27526447       5.32677319       5.67990032       0.00000000       0.00000000       0.00000000
Fe       2.52655956       1.77558253       7.07092347       0.00000000       0.00000000       0.00000000
Fe       9.78544459       5.32683686       4.78535649       0.00000000       0.00000000       0.00000000
Fe       0.08775913       1.77559476       7.81858130       0.00000000       0.00000000       0.00000000
Fe       2.38445771       5.32682124       1.30260280       0.00000000       0.00000000       0.00000000
Fe       2.52784671       1.77561770       2.78171712       0.00000000       0.00000000       0.00000000
Fe       9.73406502       5.32682805       0.56989312       0.00000000       0.00000000       0.00000000
Fe       4.95614112       1.77561539       2.92215597       0.00000000       0.00000000       0.00000000
Fe       7.34178180       5.32682289       5.02351913       0.00000000       0.00000000       0.00000000
Fe       7.45482247       1.77561712       7.03435843       0.00000000       0.00000000       0.00000000
Fe       4.84168863       5.32680235       5.07329151       0.00000000       0.00000000       0.00000000
Fe       4.93928635       1.77559953       7.10738932       0.00000000       0.00000000       0.00000000
Fe       7.29192714       5.32682340       1.07315427       0.00000000       0.00000000       0.00000000
Fe       7.40048138       1.77562004       2.86653347       0.00000000       0.00000000       0.00000000
Fe       4.91567027       5.32681597       0.93158478       0.00000000       0.00000000       0.00000000
