 C Fe                                   
   1.00000000000000     
     9.9642920218864734    0.0000214058313118   -0.1423019894396486
     0.0000150081317157    7.1024127995427113   -0.0000108309949883
    -0.1185428068236720   -0.0000127606159080    8.3665447879059798
   C    Fe
     7    48
Direct
  0.8073174645253680  0.7499998994277594  0.9392135309502199
  0.3192416540667430  0.7500095767822695  0.4792916642578798
  0.1921219523184759  0.2500014579816053  0.0721786370867369
  0.0644260049847928  0.7499965644964613  0.8017985172947698
  0.9315788539071321  0.2499969842013079  0.7298408760994256
  0.1856119831285483  0.2499904491863270  0.5440006745867338
  0.0629768249331981  0.7500037753575061  0.2931114003348792
  0.0829596390725428  0.0547507622185813  0.1688640406081949
  0.1694562595256130  0.9289551680470348  0.4198964891509037
  0.3457187301672053  0.4259682616644883  0.1097032726926129
  0.9165632013591312  0.5619465144531691  0.8435432967064022
  0.9165631922988582  0.9380526346807768  0.8435444097261736
  0.3457171402772008  0.0740319236858853  0.1097035066992722
  0.1694584651148448  0.5710548666146490  0.4198952002449163
  0.0829615618110184  0.4452502814373773  0.1688668230353810
  0.0810863532544747  0.0719050931325748  0.6622022940445008
  0.1708571062095412  0.9350887366792681  0.9178466453810982
  0.3400203022212971  0.4254962419537284  0.6125959664847337
  0.9073835298057004  0.5759677603143756  0.3575734050197434
  0.9073823554995624  0.9240367446485850  0.3575734077037939
  0.3400203404285665  0.0744896506877845  0.6125972783172198
  0.1708554857672359  0.5649048555299686  0.9178483877079885
  0.0810880564595839  0.4280931889311196  0.6621971171123920
  0.5880285034802757  0.0793954302671004  0.1109193067754880
  0.6599233709867777  0.9227069587626185  0.3672527876210601
  0.8334571020302832  0.4217688577046821  0.1116077042953037
  0.4188185337310208  0.5788258746210306  0.8677364579375759
  0.4188206671298392  0.9211714735199913  0.8677384286810581
  0.8334546168607471  0.0782315345624160  0.1116061087669496
  0.6599229824252969  0.5772941804911426  0.3672525176106312
  0.5880300667166879  0.4206046637790154  0.1109194013657159
  0.5847532769608216  0.0793596632729919  0.6121747741380804
  0.6633294360002869  0.9248243815473235  0.8649896580258045
  0.8259956767204262  0.4270942753882894  0.5966513430775194
  0.4203301923995552  0.5685914966585265  0.3583962458288102
  0.4203322447923716  0.9314109059431069  0.3583936091105022
  0.8259933829047436  0.0729077156561994  0.5966517178683526
  0.6633282685960550  0.5751779654055128  0.8649906302317802
  0.5847552928690233  0.4206413598501659  0.6121754610206304
  0.0060334916834353  0.2500021958407874  0.4015049029469425
  0.2364650417984576  0.7499953878694054  0.6829053134360159
  0.2636688123410527  0.2499978218000969  0.8496275291074933
  0.9890546890008506  0.7500019153171074  0.5887865522655304
  0.0199286101761054  0.2500004317014026  0.9348446798643452
  0.2412001802109635  0.7500011992989744  0.1597952586163100
  0.2576977674044513  0.2500018698596892  0.3368643569846471
  0.9779019077030480  0.7499998025775975  0.0847492785516043
  0.5016464680096252  0.2500008468421248  0.3577993120689331
  0.7441017892526616  0.7500007295284519  0.6130863520053946
  0.7583092870807170  0.2500012079747849  0.8536702116152013
  0.4932165481097974  0.7499985977823495  0.6147681579144423
  0.5059069827435637  0.2499994999343320  0.8581061578787527
  0.7334791083112204  0.7499999853982748  0.1407436355357072
  0.7469269864093270  0.2500007584200944  0.3553229496915227
  0.4947522580238647  0.7499996203118109  0.1197623579158885
 
  0.00000000E+00  0.00000000E+00  0.00000000E+00
  0.00000000E+00  0.00000000E+00  0.00000000E+00
  0.00000000E+00  0.00000000E+00  0.00000000E+00
  0.00000000E+00  0.00000000E+00  0.00000000E+00
  0.00000000E+00  0.00000000E+00  0.00000000E+00
  0.00000000E+00  0.00000000E+00  0.00000000E+00
  0.00000000E+00  0.00000000E+00  0.00000000E+00
  0.00000000E+00  0.00000000E+00  0.00000000E+00
  0.00000000E+00  0.00000000E+00  0.00000000E+00
  0.00000000E+00  0.00000000E+00  0.00000000E+00
  0.00000000E+00  0.00000000E+00  0.00000000E+00
  0.00000000E+00  0.00000000E+00  0.00000000E+00
  0.00000000E+00  0.00000000E+00  0.00000000E+00
  0.00000000E+00  0.00000000E+00  0.00000000E+00
  0.00000000E+00  0.00000000E+00  0.00000000E+00
  0.00000000E+00  0.00000000E+00  0.00000000E+00
  0.00000000E+00  0.00000000E+00  0.00000000E+00
  0.00000000E+00  0.00000000E+00  0.00000000E+00
  0.00000000E+00  0.00000000E+00  0.00000000E+00
  0.00000000E+00  0.00000000E+00  0.00000000E+00
  0.00000000E+00  0.00000000E+00  0.00000000E+00
  0.00000000E+00  0.00000000E+00  0.00000000E+00
  0.00000000E+00  0.00000000E+00  0.00000000E+00
  0.00000000E+00  0.00000000E+00  0.00000000E+00
  0.00000000E+00  0.00000000E+00  0.00000000E+00
  0.00000000E+00  0.00000000E+00  0.00000000E+00
  0.00000000E+00  0.00000000E+00  0.00000000E+00
  0.00000000E+00  0.00000000E+00  0.00000000E+00
  0.00000000E+00  0.00000000E+00  0.00000000E+00
  0.00000000E+00  0.00000000E+00  0.00000000E+00
  0.00000000E+00  0.00000000E+00  0.00000000E+00
  0.00000000E+00  0.00000000E+00  0.00000000E+00
  0.00000000E+00  0.00000000E+00  0.00000000E+00
  0.00000000E+00  0.00000000E+00  0.00000000E+00
  0.00000000E+00  0.00000000E+00  0.00000000E+00
  0.00000000E+00  0.00000000E+00  0.00000000E+00
  0.00000000E+00  0.00000000E+00  0.00000000E+00
  0.00000000E+00  0.00000000E+00  0.00000000E+00
  0.00000000E+00  0.00000000E+00  0.00000000E+00
  0.00000000E+00  0.00000000E+00  0.00000000E+00
  0.00000000E+00  0.00000000E+00  0.00000000E+00
  0.00000000E+00  0.00000000E+00  0.00000000E+00
  0.00000000E+00  0.00000000E+00  0.00000000E+00
  0.00000000E+00  0.00000000E+00  0.00000000E+00
  0.00000000E+00  0.00000000E+00  0.00000000E+00
  0.00000000E+00  0.00000000E+00  0.00000000E+00
  0.00000000E+00  0.00000000E+00  0.00000000E+00
  0.00000000E+00  0.00000000E+00  0.00000000E+00
  0.00000000E+00  0.00000000E+00  0.00000000E+00
  0.00000000E+00  0.00000000E+00  0.00000000E+00
  0.00000000E+00  0.00000000E+00  0.00000000E+00
  0.00000000E+00  0.00000000E+00  0.00000000E+00
  0.00000000E+00  0.00000000E+00  0.00000000E+00
  0.00000000E+00  0.00000000E+00  0.00000000E+00
  0.00000000E+00  0.00000000E+00  0.00000000E+00
