55
Time=0.00000000 pbc="T T T" Lattice="9.94359559 -0.03649107 -0.12473548 -0.05184584 7.10306464 0.04678860 -0.09799410 0.03908879 8.36758064" energy=-463.85355923 virial="-0.01613269 -0.43610526 0.02941019 -0.43610526 0.00974936 0.18576377 0.02941019 0.18576377 0.00598224" stress="0.00170185 -0.00075670 0.00013245 -0.00075670 0.00270219 -0.00004894 0.00013245 -0.00004894 0.00281429" Properties=species:S:1:pos:R:3
C 7.88093077 5.37889913 7.69148361
C 3.13730677 5.11552829 4.02904920
C 1.93650321 1.70564511 0.55886608
C 0.56269643 5.53605232 6.70925231
C 9.16591280 1.64992307 5.99577141
C 1.81408762 1.95913563 4.51403064
C 0.60785918 5.27432382 2.42527855
Fe 0.83187660 0.38073051 1.42304716
Fe 1.66666180 6.51617811 3.48742655
Fe 3.41131020 3.01643793 0.85026555
Fe 9.02170558 4.03687992 6.96885170
Fe 8.99323193 6.71706318 6.92359029
Fe 3.48154071 0.50337222 0.87658157
Fe 1.60963358 3.98834596 3.49964127
Fe 0.84206751 3.15640156 1.34332789
Fe 0.80766941 0.54754762 5.46244432
Fe 1.58099425 6.77446859 7.72524540
Fe 3.30614712 3.16362021 5.06340574
Fe 8.99675162 4.03176007 2.86866044
Fe 8.97447931 6.48574604 2.88849358
Fe 3.36466533 0.67584617 5.04544472
Fe 1.60422455 4.13554679 7.59704498
Fe 0.67023964 3.02934881 5.56816721
Fe 5.87524092 0.53788734 0.82992134
Fe 6.49407983 6.51729804 2.99193862
Fe 8.27854185 2.93942200 0.82439694
Fe 4.09647634 4.15358861 7.20071207
Fe 4.02379704 6.60761565 7.20114159
Fe 8.30568136 0.50681348 0.81036810
Fe 6.55390103 4.06168669 2.99089334
Fe 5.83266807 2.96510155 0.84920050
Fe 5.78937159 0.54670204 5.01896661
Fe 6.44402651 6.57650526 7.15937539
Fe 8.14305712 2.97463837 4.92197149
Fe 4.18452153 4.01846415 2.88349229
Fe 4.09651013 6.55295221 3.02232940
Fe 8.17003990 0.48024329 4.82092782
Fe 6.51611506 4.06326006 7.13653325
Fe 5.72989184 2.97621573 5.03561457
Fe 0.01281669 1.76488573 3.33043266
Fe 2.27712172 5.45510947 5.68589740
Fe 2.54541026 1.87226522 7.07191704
Fe 9.76966448 5.27128574 4.82922129
Fe 0.11007469 1.83008128 7.80040507
Fe 2.37630112 5.30912262 1.29250627
Fe 2.53780471 1.74050208 2.76885197
Fe 9.71157347 5.31140668 0.56222398
Fe 4.95376208 1.74566294 2.91648880
Fe 7.34433434 5.29295603 5.04542772
Fe 7.43986825 1.76538806 7.05615347
Fe 4.86261118 5.33535362 5.09913966
Fe 4.94645387 1.80786589 7.11257071
Fe 7.27571190 5.27567117 1.04980295
Fe 7.40051129 1.73954821 2.86117299
Fe 4.90259333 5.31786882 0.91255455
