 C Fe                                   
   1.00000000000000     
    10.0140572778210810    0.0000744880834021   -0.0171729662813176
     0.0000488073887695    7.3901012398025454    0.0000000055512718
     0.0108173002760388   -0.0000008486389600    7.9658097585504768
   C    Fe
     4    48
Direct
  0.5375870768667063  0.7500005026581847  0.8677002047494353
  0.5375845118272153  0.7500019377963186  0.3677002874725986
  0.0375845511565132  0.7500016335674016  0.8676982003467378
  0.0375810747863580  0.7499999215997902  0.3676980733689921
  0.0842942988254121  0.0836194997636073  0.1172777382513330
  0.1699186697519260  0.9305867862289408  0.3673359413972148
  0.3326113236659279  0.4170992806645759  0.1172871776703498
  0.9090412776882043  0.5663693692439756  0.8673860796745817
  0.9090336771288963  0.9336288340295953  0.8673878451516539
  0.3325966600653234  0.0828989478015254  0.1172885268561049
  0.1699275419232088  0.5694183253573669  0.3673347579415471
  0.0843095485865680  0.4163782678320637  0.1172764223394286
  0.0842944176409057  0.0836193422272356  0.6172764960254825
  0.1699194697733538  0.9305892401503741  0.8673360274752898
  0.3326115900468672  0.4170993908959320  0.6172850771918634
  0.9090401299272256  0.5663679469244096  0.3673859420953647
  0.9090327806049806  0.9336291331385685  0.3673876780162169
  0.3325967034719008  0.0828989551940823  0.6172871655341192
  0.1699280554377992  0.5694168130229628  0.8673348829506691
  0.0843097356810473  0.4163782084070244  0.6172751434269488
  0.5842993314228754  0.0836200883642888  0.1172772087445911
  0.6699234823028957  0.9305839468251750  0.3673358887134484
  0.8326142421060612  0.4170977641254895  0.1172869104552756
  0.4090407584452083  0.5663694703518944  0.8673865204172536
  0.4090336787187894  0.9336282192886972  0.8673881716453614
  0.8325996446676024  0.0829007124879246  0.1172889080806614
  0.6699321809326304  0.5694230589334178  0.3673346735258142
  0.5843145589128153  0.4163785090179363  0.1172758891063320
  0.5842994852797786  0.0836200262775943  0.6172761604662770
  0.6699238886526541  0.9305855422209417  0.8673359138083726
  0.8326144964269694  0.4170979110769551  0.6172857437725213
  0.4090398814697457  0.5663693539843373  0.3673863129115655
  0.4090324167724338  0.9336294165101158  0.3673881909458909
  0.8325998307046732  0.0829007156948086  0.6172871244482275
  0.6699330490008621  0.5694204608003417  0.8673348010832056
  0.5843148303599550  0.4163785865910917  0.6172748213363308
 -0.0113498207399499  0.2499990565628730  0.3672154999156681
  0.2728089300314232  0.7499991898449703  0.6173613562093496
  0.2397243928474111  0.2500012139038116  0.8672025341395820
  0.0203789856310312  0.7499983606869615  0.6175683397154645
 -0.0113489763182093  0.2499994750329383  0.8672154752100483
  0.2728091201385499  0.7499992445087609  0.1173630953666256
  0.2397230123888611  0.2500006208130974  0.3672025471124976
  0.0203791311347557  0.7499984783019378  0.1175689257414212
  0.4886503135149852  0.2499998045995320  0.3672146165128683
  0.7728114784366514  0.7499993593512757  0.6173617185211556
  0.7397299514569530  0.2500009390125545  0.8672026072687197
  0.5203862993657193  0.7499988609660481  0.6175699361951348
  0.4886512826045183  0.2499995180694695  0.8672145421136377
  0.7728116145682392  0.7499993658964557  0.1173630202912389
  0.7397289736437225  0.2500014576777572  0.3672026733688540
  0.5203864602630424  0.7499989357166107  0.1175702049206313
 
  0.00000000E+00  0.00000000E+00  0.00000000E+00
  0.00000000E+00  0.00000000E+00  0.00000000E+00
  0.00000000E+00  0.00000000E+00  0.00000000E+00
  0.00000000E+00  0.00000000E+00  0.00000000E+00
  0.00000000E+00  0.00000000E+00  0.00000000E+00
  0.00000000E+00  0.00000000E+00  0.00000000E+00
  0.00000000E+00  0.00000000E+00  0.00000000E+00
  0.00000000E+00  0.00000000E+00  0.00000000E+00
  0.00000000E+00  0.00000000E+00  0.00000000E+00
  0.00000000E+00  0.00000000E+00  0.00000000E+00
  0.00000000E+00  0.00000000E+00  0.00000000E+00
  0.00000000E+00  0.00000000E+00  0.00000000E+00
  0.00000000E+00  0.00000000E+00  0.00000000E+00
  0.00000000E+00  0.00000000E+00  0.00000000E+00
  0.00000000E+00  0.00000000E+00  0.00000000E+00
  0.00000000E+00  0.00000000E+00  0.00000000E+00
  0.00000000E+00  0.00000000E+00  0.00000000E+00
  0.00000000E+00  0.00000000E+00  0.00000000E+00
  0.00000000E+00  0.00000000E+00  0.00000000E+00
  0.00000000E+00  0.00000000E+00  0.00000000E+00
  0.00000000E+00  0.00000000E+00  0.00000000E+00
  0.00000000E+00  0.00000000E+00  0.00000000E+00
  0.00000000E+00  0.00000000E+00  0.00000000E+00
  0.00000000E+00  0.00000000E+00  0.00000000E+00
  0.00000000E+00  0.00000000E+00  0.00000000E+00
  0.00000000E+00  0.00000000E+00  0.00000000E+00
  0.00000000E+00  0.00000000E+00  0.00000000E+00
  0.00000000E+00  0.00000000E+00  0.00000000E+00
  0.00000000E+00  0.00000000E+00  0.00000000E+00
  0.00000000E+00  0.00000000E+00  0.00000000E+00
  0.00000000E+00  0.00000000E+00  0.00000000E+00
  0.00000000E+00  0.00000000E+00  0.00000000E+00
  0.00000000E+00  0.00000000E+00  0.00000000E+00
  0.00000000E+00  0.00000000E+00  0.00000000E+00
  0.00000000E+00  0.00000000E+00  0.00000000E+00
  0.00000000E+00  0.00000000E+00  0.00000000E+00
  0.00000000E+00  0.00000000E+00  0.00000000E+00
  0.00000000E+00  0.00000000E+00  0.00000000E+00
  0.00000000E+00  0.00000000E+00  0.00000000E+00
  0.00000000E+00  0.00000000E+00  0.00000000E+00
  0.00000000E+00  0.00000000E+00  0.00000000E+00
  0.00000000E+00  0.00000000E+00  0.00000000E+00
  0.00000000E+00  0.00000000E+00  0.00000000E+00
  0.00000000E+00  0.00000000E+00  0.00000000E+00
  0.00000000E+00  0.00000000E+00  0.00000000E+00
  0.00000000E+00  0.00000000E+00  0.00000000E+00
  0.00000000E+00  0.00000000E+00  0.00000000E+00
  0.00000000E+00  0.00000000E+00  0.00000000E+00
  0.00000000E+00  0.00000000E+00  0.00000000E+00
  0.00000000E+00  0.00000000E+00  0.00000000E+00
  0.00000000E+00  0.00000000E+00  0.00000000E+00
  0.00000000E+00  0.00000000E+00  0.00000000E+00
