52
Time=0.00000000 pbc="T T T" Lattice="9.99714436 0.00003310 -0.01581126 -0.00000694 7.41717778 0.00000047 0.01243982 -0.00000049 7.92758892" energy=-438.14304406 virial="0.00332406 -0.00016702 0.00284870 -0.00016702 0.04198673 0.00000475 0.00284870 0.00000475 -0.04726700" stress="0.00214710 -0.00003772 -0.00020213 -0.00003772 0.00283228 -0.00002012 -0.00020213 -0.00002012 0.00187790" Properties=species:S:1:pos:R:3
C 5.41130167 5.54886086 6.88604050
C 5.40508159 5.54886099 2.92224501
C 0.41272965 5.54884425 6.89394660
C 0.40650998 5.54884454 2.93015106
Fe 0.84067582 0.60769273 0.94755151
Fe 1.72542715 6.87979309 2.92805903
Fe 3.33315436 3.07536597 0.94361003
Fe 9.12258535 4.18920181 6.88016604
Fe 9.12257854 6.90854644 6.88016629
Fe 3.33314757 0.60516846 0.94360997
Fe 1.72543430 4.21790466 2.92805884
Fe 0.84068246 3.07282448 0.94755157
Fe 0.84689544 0.60769248 4.91134827
Fe 1.73164671 6.87979259 6.89185577
Fe 3.33937400 3.07536596 4.90740661
Fe 9.11636564 4.18920175 2.91636945
Fe 9.11635900 6.90854685 2.91636958
Fe 3.33936729 0.60516828 4.90740648
Fe 1.73165398 4.21790481 6.89185565
Fe 0.84690216 3.07282430 4.91134834
Fe 5.83924789 0.60770925 0.93964535
Fe 6.72399934 6.87980980 2.92015279
Fe 8.33172652 3.07538267 0.93570395
Fe 4.12401325 4.18918500 6.88807209
Fe 4.12400653 6.90852989 6.88807224
Fe 8.33171978 0.60518515 0.93570374
Fe 6.72400610 4.21792138 2.92015261
Fe 5.83925464 3.07284102 0.93964560
Fe 5.84546757 0.60770906 4.90344217
Fe 6.73021870 6.87980902 6.88394946
Fe 8.33794617 3.07538256 4.89950047
Fe 4.11779381 4.18918522 2.92427557
Fe 4.11778712 6.90853006 2.92427569
Fe 8.33793942 0.60518476 4.89950033
Fe 6.73022609 4.21792127 6.88394936
Fe 5.84547431 3.07284068 4.90344225
Fe 9.86951125 1.84028779 2.91517143
Fe 2.74486673 5.54885284 4.90835278
Fe 2.38134158 1.84026275 6.89082157
Fe 0.21824551 5.54884400 4.91234914
Fe 9.87572988 1.84028756 6.87896820
Fe 2.73864746 5.54885309 0.94455560
Fe 2.37512288 1.84026288 2.92702500
Fe 0.21202614 5.54884428 0.94855375
Fe 4.87093918 1.84027114 2.92307713
Fe 7.74343863 5.54886946 4.90044648
Fe 7.37991370 1.84027931 6.88291528
Fe 5.21681713 5.54886064 4.90444318
Fe 4.87715785 1.84027091 6.88687374
Fe 7.73721942 5.54886962 0.93664941
Fe 7.37369504 1.84027947 2.91911872
Fe 5.21059790 5.54886084 0.94064780
