C  Fe
 1.0000000000000000
     9.3244287799999999   -0.0000002800000000   -0.0000000100000000
    -0.0000003000000000    8.5789393700000005    0.0000000000000000
    -0.0000000100000000   -0.0000000000000000    5.6708591200000003
 C   Fe 
  16  32
Cartesian
  0.0212996400000000  0.0124727700000000  5.6636882399999999
  2.3524061600000001  2.1572071600000000  1.4105444800000000
  0.0212999800000000  0.0124720100000000  2.8282579700000001
  2.3524059300000002  2.1572064700000002  4.2459745599999996
  0.0212991100000000  4.3019414100000004  5.6636887700000003
  2.3524072399999998  6.4466773000000002  1.4105447300000000
  0.0212988700000000  4.3019425199999999  2.8282584499999999
  2.3524060200000001  6.4466769700000004  4.2459739699999997
  4.6835146800000000  0.0124718500000000  5.6636883600000001
  7.0146213299999998  2.1572065199999999  1.4105452700000001
  4.6835142500000000  0.0124713800000000  2.8282585800000000
  7.0146215099999996  2.1572064200000001  4.2459748399999997
  4.6835133100000004  4.3019419100000000  5.6636881099999998
  7.0146208799999998  6.4466758100000003  1.4105451400000000
  4.6835138000000001  4.3019423300000001  2.8282578599999999
  7.0146214200000001  6.4466761000000004  4.2459746000000003
  3.0779267500000000  1.0857288599999999  5.6636892300000001
  6.2891003799999998  7.5181550399999999  5.6636892100000003
  5.4090366400000001  1.0839518900000000  1.4105458799999999
  8.6202077399999997  3.2304626999999999  1.4105449600000000
  3.0779277999999999  1.0857277500000000  2.8282608200000001
  6.2890992099999998  7.5181559900000003  2.8282600499999999
  5.4090367700000002  1.0839517100000000  4.2459763500000003
  8.6202076600000002  3.2304627899999998  4.2459760700000002
  3.0779277199999999  5.3751975600000002  5.6636895599999999
  6.2891008900000003  3.2286849399999999  5.6636893900000000
  5.4090366100000002  5.3734213799999999  1.4105459000000000
  8.6202085600000000  7.5199327900000004  1.4105456199999999
  3.0779286600000000  5.3751966900000001  2.8282600599999999
  6.2890999399999998  3.2286859200000002  2.8282597699999998
  5.4090364800000001  5.3734210999999998  4.2459762200000002
  8.6202073699999993  7.5199322400000002  4.2459759899999998
  7.7401421499999996  1.0857283300000000  5.6636893199999996
  1.6268857100000000  7.5181551300000002  5.6636899100000004
  0.7468206100000000  1.0839517299999999  1.4105454399999999
  3.9579919600000002  3.2304625400000000  1.4105453699999999
  7.7401424900000002  1.0857277400000001  2.8282599799999999
  1.6268843300000000  7.5181562399999997  2.8282607799999999
  0.7468206200000000  1.0839515300000000  4.2459761800000004
  3.9579922600000002  3.2304626200000000  4.2459762599999999
  7.7401422799999997  5.3751974200000001  5.6636896200000004
  1.6268852100000000  3.2286852599999998  5.6636897099999999
  0.7468201500000000  5.3734210100000004  1.4105457900000000
  3.9579916499999999  7.5199320199999997  1.4105454300000000
  7.7401434199999999  5.3751965200000003  2.8282598499999998
  1.6268844000000000  3.2286864799999999  2.8282600300000000
  0.7468200900000000  5.3734211800000002  4.2459756000000004
  3.9579922299999999  7.5199325699999999  4.2459749499999999
