C  Fe
 1.0000000000000000
     7.9033605500000004    0.0000000000000000    0.0000000500000000
     0.0000000000000000    7.9049594499999998   -0.0000002900000000
     0.0000000700000000   -0.0000003800000000    6.1936419300000001
 C   Fe 
   3  32
Cartesian
  0.0225191900000000  5.9547773599999996  3.0841070400000001
  1.9984726900000001  2.0022963100000002  4.6541248299999998
  5.9499292900000000  2.0022963200000001  4.6541246599999999
  0.0225195900000000  0.0631209800000000  0.0120922300000000
  0.0225195100000000  0.0034462400000000  3.0827361199999999
  0.0225196000000000  3.9414750800000000  0.0120921100000000
  0.0225194700000000  4.0011495699999999  3.0827362699999998
  3.9742005800000002  0.0076645400000000  0.0160312900000000
  3.9742004799999999  0.0054795300000000  3.0856978200000000
  3.9742005599999999  3.9969303300000001  0.0160312200000000
  3.9742005800000002  3.9991148000000001  3.0856977900000002
  0.0225200900000000  2.0022980300000000  1.5693409500000000
  0.0225204600000000  2.0022966400000000  4.6213078799999998
  0.0225187500000000  5.9547783900000004  1.2803268400000001
  0.0225190800000000  5.9547773700000004  4.8902687399999998
  3.9742010300000001  2.0022972200000000  1.5519442800000001
  3.9742004400000002  2.0022961700000002  4.6506276599999996
  3.9742000300000000  5.9547777799999997  1.5652076200000000
  3.9742002699999999  5.9547768699999999  4.6306901900000002
  2.0107601900000001  7.8799125800000001  1.5460071900000001
  2.0075410599999999  0.0452076800000000  4.6520405900000004
  2.0107603699999999  4.0296433499999997  1.5460073000000001
  2.0075411500000002  3.9593854899999998  4.6520407500000003
  5.9376403699999996  7.8799127300000000  1.5460071000000000
  5.9408595899999996  0.0452078600000000  4.6520406799999998
  5.9376401899999998  4.0296431899999998  1.5460072800000000
  5.9408595399999999  3.9593851600000001  4.6520407199999996
  2.0006801400000001  2.0022979599999999  0.2562898800000000
  2.0046890300000002  2.0022978199999999  2.8567825099999999
  2.0535460900000002  5.9547776199999998  6.1757593000000002
  1.9901175700000000  5.9547778600000001  3.1179641199999999
  5.9477215000000001  2.0022977399999999  0.2562900100000000
  5.9437126899999999  2.0022977900000001  2.8567830000000001
  5.8948533999999997  5.9547777300000000  6.1757591900000000
  5.9582820900000000  5.9547779500000004  3.1179641500000002
