56
Lattice="10.005259865027229 -9.8794292442e-06 -0.3326207602393573 -7.5789258215e-06 7.166917016327341 -2.889933063e-07 -0.2844249466248558 2.586879952e-07 8.337659685388006" Properties=species:S:1:pos:R:3:momenta:R:3 pbc="T T T"
C        7.88459508       5.37516221       7.90853244       0.00000000       0.00000000       0.00000000
C        6.69666655       1.79172419       4.09901788       0.00000000       0.00000000       0.00000000
C        5.54936224       5.37516421       2.28228928       0.00000000       0.00000000       0.00000000
C        9.31633540       1.79171662       1.38763080       0.00000000       0.00000000       0.00000000
C        3.07212862       5.37518241       3.79805105       0.00000000       0.00000000       0.00000000
C        1.78831323       1.79169459       0.20449618       0.00000000       0.00000000       0.00000000
C        2.76389532       5.37520308       7.68302279       0.00000000       0.00000000       0.00000000
C        1.81210340       1.79173802       4.65722218       0.00000000       0.00000000       0.00000000
Fe       0.73453022       0.51150338       1.24793260       0.00000000       0.00000000       0.00000000
Fe       1.52661495       6.59098914       3.25262180       0.00000000       0.00000000       0.00000000
Fe       3.33372344       3.00748361       0.74991694       0.00000000       0.00000000       0.00000000
Fe       8.92763853       4.09764333       6.88963025       0.00000000       0.00000000       0.00000000
Fe       8.92762747       6.65269876       6.88963459       0.00000000       0.00000000       0.00000000
Fe       3.33374900       0.57596571       0.74991741       0.00000000       0.00000000       0.00000000
Fe       1.52660972       4.15938002       3.25262184       0.00000000       0.00000000       0.00000000
Fe       0.73452750       3.07194112       1.24791282       0.00000000       0.00000000       0.00000000
Fe       0.64678715       0.43449681       5.37409350       0.00000000       0.00000000       0.00000000
Fe       1.29961382       6.67132548       7.49333032       0.00000000       0.00000000       0.00000000
Fe       3.27635273       3.08784123       4.84687753       0.00000000       0.00000000       0.00000000
Fe       9.05425693       4.14901350       2.87455107       0.00000000       0.00000000       0.00000000
Fe       9.05425780       6.60134829       2.87455738       0.00000000       0.00000000       0.00000000
Fe       3.27635527       0.49562835       4.84687304       0.00000000       0.00000000       0.00000000
Fe       1.29961567       4.07907974       7.49331812       0.00000000       0.00000000       0.00000000
Fe       0.64677884       3.14896901       5.37409775       0.00000000       0.00000000       0.00000000
Fe       5.81143670       0.56556141       0.79536149       0.00000000       0.00000000       0.00000000
Fe       6.60851869       6.77560669       3.08036213       0.00000000       0.00000000       0.00000000
Fe       8.25721440       3.19215492       0.58957236       0.00000000       0.00000000       0.00000000
Fe       3.92917621       4.01797590       6.96610555       0.00000000       0.00000000       0.00000000
Fe       3.92918446       6.73240311       6.96609594       0.00000000       0.00000000       0.00000000
Fe       8.25721863       0.39126205       0.58956607       0.00000000       0.00000000       0.00000000
Fe       6.60851841       3.97474432       3.08036729       0.00000000       0.00000000       0.00000000
Fe       5.81141891       3.01789026       0.79537111       0.00000000       0.00000000       0.00000000
Fe       5.65364701       0.51421798       5.11793134       0.00000000       0.00000000       0.00000000
Fe       6.40131332       6.57822823       7.09650174       0.00000000       0.00000000       0.00000000
Fe       8.17998967       2.99481505       4.91109634       0.00000000       0.00000000       0.00000000
Fe       4.12587704       4.09492283       2.75459182       0.00000000       0.00000000       0.00000000
Fe       4.12588532       6.65543836       2.75458925       0.00000000       0.00000000       0.00000000
Fe       8.17998874       0.58863859       4.91109934       0.00000000       0.00000000       0.00000000
Fe       6.40130516       4.17213342       7.09651035       0.00000000       0.00000000       0.00000000
Fe       5.65363092       3.06924029       5.11794387       0.00000000       0.00000000       0.00000000
Fe       0.11168300       1.79173188       3.46590266       0.00000000       0.00000000       0.00000000
Fe       2.26848475       5.37519442       5.53850905       0.00000000       0.00000000       0.00000000
Fe       2.30747262       1.79173670       6.80173040       0.00000000       0.00000000       0.00000000
Fe       9.82198767       5.37518121       4.95800072       0.00000000       0.00000000       0.00000000
Fe      -0.23527680       1.79173148       7.40885572       0.00000000       0.00000000       0.00000000
Fe       2.31385084       5.37518230       1.23501129       0.00000000       0.00000000       0.00000000
Fe       2.54652666       1.79172485       2.76752950       0.00000000       0.00000000       0.00000000
Fe       9.82919592       5.37517502       0.73639930       0.00000000       0.00000000       0.00000000
Fe       5.03652011       1.79172073       2.93351777       0.00000000       0.00000000       0.00000000
Fe       7.35356681       5.37518182       5.00044489       0.00000000       0.00000000       0.00000000
Fe       7.22768923       1.79172493       7.00717682       0.00000000       0.00000000       0.00000000
Fe       4.81127116       5.37518449       4.93137746       0.00000000       0.00000000       0.00000000
Fe       4.75929402       1.79173160       7.04960897       0.00000000       0.00000000       0.00000000
Fe       7.18914434       5.37517594       1.17142030       0.00000000       0.00000000       0.00000000
Fe       7.67659577       1.79171582       2.49842964       0.00000000       0.00000000       0.00000000
Fe       4.74877438       5.37518767       0.53660547       0.00000000       0.00000000       0.00000000
