 C Fe                                   
   1.00000000000000     
    10.0052598650272291   -0.0000098794292442   -0.3326207602393573
    -0.0000075789258215    7.1669170163273410   -0.0000002889933063
    -0.2844249466248558    0.0000002586879952    8.3376596853880063
   C    Fe
     8    48
Direct
  0.8159353312539472  0.7499975244133530  0.9810822210718944
  0.6840663268114973  0.2500002170116329  0.5189169121957420
  0.5630651648104407  0.7499974797888564  0.2961954262290712
  0.9369377006112242  0.2499995212107821  0.2038072869370274
  0.3203648333590949  0.7499996773366828  0.4683102226221272
  0.1796384604343585  0.2499954102617898  0.0316932745878311
  0.3027837161117701  0.7500025216323571  0.9335635482438526
  0.1972178887184143  0.2500014750051422  0.5664444458603665
  0.0777575148249962  0.0713701728498301  0.1527762507924054
  0.1638576931695320  0.9196409888477595  0.3966490194815331
  0.3361354785900769  0.4196346770483046  0.1033530668173082
  0.9168251418945683  0.5717454455243005  0.8629022722814513
  0.9168243204005890  0.9282523544847822  0.8629027724860197
  0.3361377796219192  0.0803649603699248  0.1033532031252054
  0.1638569121719202  0.5803585452257883  0.3966489813947144
  0.0777574458637420  0.4286280750132164  0.1527738873832632
  0.0830621181031447  0.0606254356936949  0.6478702541467241
  0.1556190219824345  0.9308502902372617  0.9049413128300822
  0.3443795119955751  0.4308469692974022  0.5950621174944772
  0.9157896036376654  0.5789131427266536  0.3813014677315913
  0.9157899721017893  0.9210874386902397  0.3813022508670386
  0.3443794759484557  0.0691554812215231  0.5950615647890802
  0.1556188908487856  0.5691542166018247  0.9049398323083314
  0.0830615880295415  0.4393757676392063  0.6478707562873219
  0.5842125748970040  0.0789135904373839  0.1187003039279835
  0.6717696143874559  0.9454013781070341  0.3962511125606333
  0.8282371443942236  0.4454025448931846  0.1037534984779566
  0.4169355049141539  0.5606287594880947  0.8521320595849214
  0.4169365852014734  0.9393728138419630  0.8521309624853696
  0.8282372493817641  0.0545939361852648  0.1037527348051426
  0.6717693070849452  0.5545970241341101  0.3962517047280782
  0.5842110871285311  0.4210870584951937  0.1187014113509553
  0.5831786761664040  0.0717496200621797  0.6370982865201121
  0.6647451511094254  0.9178611327120058  0.8776575580023590
  0.8352610629638232  0.4178677016110865  0.6223474967299244
  0.4222419697335266  0.5713651910441190  0.3472243456734370
  0.4222430609665975  0.9286339472770264  0.3472240938132365
  0.8352607249677508  0.0821338775432076  0.6223478306785415
  0.6647441090078042  0.5821387001492062  0.8776585374946991
  0.5831773795803957  0.4282519076093553  0.6370997497884602
  0.0230058254804118  0.2500003834929355  0.4166103050879731
  0.2458923895242801  0.7500012433541480  0.6740858215669345
  0.2541050590377349  0.2500013600414361  0.8259213434840068
  0.9997212271373397  0.7500004411431007  0.6345340506023393
  0.0017476126039274  0.2500002807474533  0.8886710850740706
  0.2357421768864892  0.7499995565560302  0.1575291262028196
  0.2642546574188411  0.2499997376835600  0.3424733390848574
  0.9860324509797889  0.7499995763898697  0.1276586496713607
  0.5139722443183932  0.2499995062447915  0.3723437745073702
  0.7528736776583969  0.7500001863700204  0.6297770266281278
  0.7471276645974537  0.2500003952782748  0.8702306572014401
  0.4982535162663581  0.7500002084634432  0.6113354750485216
  0.5002826403359046  0.2500009853660704  0.8654722915425310
  0.7233514007272636  0.7499993409839629  0.1693547430721755
  0.7766554741316380  0.2499991848174729  0.3306397180442599
  0.4769988897150036  0.7500006413447039  0.0833885585949082
 
  0.00000000E+00  0.00000000E+00  0.00000000E+00
  0.00000000E+00  0.00000000E+00  0.00000000E+00
  0.00000000E+00  0.00000000E+00  0.00000000E+00
  0.00000000E+00  0.00000000E+00  0.00000000E+00
  0.00000000E+00  0.00000000E+00  0.00000000E+00
  0.00000000E+00  0.00000000E+00  0.00000000E+00
  0.00000000E+00  0.00000000E+00  0.00000000E+00
  0.00000000E+00  0.00000000E+00  0.00000000E+00
  0.00000000E+00  0.00000000E+00  0.00000000E+00
  0.00000000E+00  0.00000000E+00  0.00000000E+00
  0.00000000E+00  0.00000000E+00  0.00000000E+00
  0.00000000E+00  0.00000000E+00  0.00000000E+00
  0.00000000E+00  0.00000000E+00  0.00000000E+00
  0.00000000E+00  0.00000000E+00  0.00000000E+00
  0.00000000E+00  0.00000000E+00  0.00000000E+00
  0.00000000E+00  0.00000000E+00  0.00000000E+00
  0.00000000E+00  0.00000000E+00  0.00000000E+00
  0.00000000E+00  0.00000000E+00  0.00000000E+00
  0.00000000E+00  0.00000000E+00  0.00000000E+00
  0.00000000E+00  0.00000000E+00  0.00000000E+00
  0.00000000E+00  0.00000000E+00  0.00000000E+00
  0.00000000E+00  0.00000000E+00  0.00000000E+00
  0.00000000E+00  0.00000000E+00  0.00000000E+00
  0.00000000E+00  0.00000000E+00  0.00000000E+00
  0.00000000E+00  0.00000000E+00  0.00000000E+00
  0.00000000E+00  0.00000000E+00  0.00000000E+00
  0.00000000E+00  0.00000000E+00  0.00000000E+00
  0.00000000E+00  0.00000000E+00  0.00000000E+00
  0.00000000E+00  0.00000000E+00  0.00000000E+00
  0.00000000E+00  0.00000000E+00  0.00000000E+00
  0.00000000E+00  0.00000000E+00  0.00000000E+00
  0.00000000E+00  0.00000000E+00  0.00000000E+00
  0.00000000E+00  0.00000000E+00  0.00000000E+00
  0.00000000E+00  0.00000000E+00  0.00000000E+00
  0.00000000E+00  0.00000000E+00  0.00000000E+00
  0.00000000E+00  0.00000000E+00  0.00000000E+00
  0.00000000E+00  0.00000000E+00  0.00000000E+00
  0.00000000E+00  0.00000000E+00  0.00000000E+00
  0.00000000E+00  0.00000000E+00  0.00000000E+00
  0.00000000E+00  0.00000000E+00  0.00000000E+00
  0.00000000E+00  0.00000000E+00  0.00000000E+00
  0.00000000E+00  0.00000000E+00  0.00000000E+00
  0.00000000E+00  0.00000000E+00  0.00000000E+00
  0.00000000E+00  0.00000000E+00  0.00000000E+00
  0.00000000E+00  0.00000000E+00  0.00000000E+00
  0.00000000E+00  0.00000000E+00  0.00000000E+00
  0.00000000E+00  0.00000000E+00  0.00000000E+00
  0.00000000E+00  0.00000000E+00  0.00000000E+00
  0.00000000E+00  0.00000000E+00  0.00000000E+00
  0.00000000E+00  0.00000000E+00  0.00000000E+00
  0.00000000E+00  0.00000000E+00  0.00000000E+00
  0.00000000E+00  0.00000000E+00  0.00000000E+00
  0.00000000E+00  0.00000000E+00  0.00000000E+00
  0.00000000E+00  0.00000000E+00  0.00000000E+00
  0.00000000E+00  0.00000000E+00  0.00000000E+00
  0.00000000E+00  0.00000000E+00  0.00000000E+00
