56
Time=0.00000000 pbc="T T T" Lattice="9.96214887 -0.00000795 -0.32020472 -0.00000496 7.20455832 -0.00000138 -0.27163184 -0.00000062 8.34902031" energy=-473.01969333 virial="-0.02398120 0.00023430 0.06487038 0.00023430 0.07916842 0.00002888 0.06487038 0.00002888 -0.03209422" stress="0.00193926 0.00034629 -0.00017824 0.00034629 0.00258245 -0.00015165 -0.00017824 -0.00015165 0.00277228" Properties=species:S:1:pos:R:3
C 7.88342900 5.55775001 7.90376494
C 6.68153052 1.95547483 4.11616499
C 5.56116811 5.25533834 2.26073512
C 9.27542924 1.65306551 1.41017922
C 3.07001317 5.18237006 3.84362588
C 1.80443358 1.58009416 0.14750220
C 2.75092005 5.48482987 7.67877386
C 1.85189039 1.88255082 4.66137346
Fe 0.76671076 0.46300824 1.29538459
Fe 1.63161447 6.58925655 3.26603390
Fe 3.24283280 2.98698032 0.72508973
Fe 8.84070290 4.10948125 6.97877581
Fe 9.01110750 6.64871555 6.84184274
Fe 3.40715109 0.56486237 0.77471075
Fe 1.46729813 4.16713942 3.21641513
Fe 0.73406226 3.01054119 1.15682769
Fe 0.71432489 0.46868203 5.34598380
Fe 1.38798731 6.85948006 7.51235593
Fe 3.21481751 3.25720556 4.82779406
Fe 8.99706574 4.13394535 2.86918601
Fe 9.10074602 6.60084098 2.86893992
Fe 3.35461622 0.62626652 4.90721670
Fe 1.24820442 4.22854134 7.43292869
Fe 0.58976602 3.15165736 5.39906033
Fe 5.83953554 0.53167504 0.80172417
Fe 6.63164961 6.66609669 3.01811210
Fe 8.20494384 3.06381615 0.65279563
Fe 3.88849140 4.07096339 6.99416440
Fe 4.01304161 6.75393944 6.94108276
Fe 8.26208992 0.26899476 0.55934144
Fe 6.57451061 3.87127439 3.11157048
Fe 5.73584821 2.99857194 0.80197351
Fe 5.72426332 0.50720639 5.04115706
Fe 6.41830369 6.61287768 7.06426993
Fe 8.14665394 3.01060135 4.95566464
Fe 4.10773778 4.06528211 2.69574427
Fe 4.14038398 6.61281470 2.83429600
Fe 8.20175135 0.60261250 4.89403359
Fe 6.36321445 4.20488920 7.12589665
Fe 5.55384658 3.04643975 5.17808665
Fe 0.13905805 1.80698983 3.43850281
Fe 2.27628394 5.51209137 5.54991223
Fe 2.32652765 1.90981017 6.79023549
Fe -0.13656251 5.40191602 5.24034574
Fe -0.24038157 1.79078689 7.40107991
Fe 2.30834630 5.37242346 1.18636734
Fe 2.56610098 1.77014576 2.80475795
Fe 9.81915775 5.34583983 0.75676462
Fe 5.01743869 1.74356472 2.91414428
Fe 7.37651715 5.38743075 4.99001179
Fe 7.18844382 1.78515223 7.02991818
Fe 4.84319358 5.39306232 4.93906620
Fe 4.73937486 1.79963919 7.09979353
Fe 7.18719629 5.27071920 1.13086256
Fe 7.64940381 1.66843999 2.54004695
Fe 4.73538673 5.40927091 0.55261955
